%nproc=8
%mem=18000mb
#P PBE1PBE DEF2TZVPP OPT FREQ SCF(tight) INT(ultrafine)

 14-nq-6-ch2ococh3_n_ox

 1 2
 C       -0.0501260000       -2.0918340000        0.0428190000
 C       -0.8139260000       -0.9068090000        0.1438080000
 C        1.3236080000       -2.0261210000       -0.0491280000
 C        1.9638350000       -0.7632080000       -0.0145820000
 C        1.2129670000        0.4234150000        0.0416650000
 C       -0.1647550000        0.3542730000        0.1586840000
 H       -0.7440470000        1.2766940000        0.2503440000
 H       -0.5498780000       -3.0641700000        0.0393240000
 H        1.9406150000       -2.9254350000       -0.1128950000
 C        3.4553520000       -0.6981660000       -0.0846160000
 C        4.0962160000        0.6290190000        0.0363650000
 C        1.8884850000        1.7631390000        0.0707030000
 C        3.3732290000        1.7570380000        0.1132100000
 H        3.8444550000        2.7407160000        0.1933910000
 H        5.1889430000        0.6297570000        0.0180080000
 O        4.0829830000       -1.7068780000       -0.3217750000
 O        1.2500670000        2.7851420000        0.0778580000
 C       -2.2992260000       -0.9855010000        0.2340430000
 O       -2.8469170000        0.2645170000       -0.0638310000
 H       -2.5643690000       -1.3082450000        1.2638260000
 H       -2.6669340000       -1.7814810000       -0.4416190000
 C       -4.1898760000        0.4906340000       -0.1436480000
 O       -4.5413080000        1.5914650000       -0.4444230000
 C       -5.1187220000       -0.6515170000        0.1451340000
 H       -4.9682100000       -1.0389340000        1.1638420000
 H       -4.9523970000       -1.4747890000       -0.5670350000
 H       -6.1491400000       -0.2942670000        0.0434370000

