%nproc=8
%mem=18000mb
#P PBE1PBE DEF2TZVPP OPT FREQ SCF(tight) INT(ultrafine)

 14-nq-6-ch2ococh3_n_rd

-1 2
 C        0.4391160000       -1.4288320000       -0.4197640000
 C        0.8420760000       -0.0733300000       -0.3798730000
 C       -0.8938400000       -1.7586160000       -0.2707210000
 C       -1.8775720000       -0.7668920000       -0.0864160000
 C       -1.4789660000        0.5930670000       -0.0437340000
 C       -0.1164990000        0.9086630000       -0.1855890000
 H        0.1429100000        1.9714920000       -0.1414720000
 H        1.1917350000       -2.2111210000       -0.5570980000
 H       -1.2410960000       -2.7950250000       -0.2929150000
 C       -3.2900760000       -1.1631550000        0.0548660000
 C       -4.2073770000       -0.0668060000        0.2385400000
 C       -2.4510070000        1.6856370000        0.1450490000
 C       -3.8188550000        1.2551510000        0.2806030000
 H       -4.5567760000        2.0518480000        0.4219460000
 H       -5.2613940000       -0.3439230000        0.3460500000
 O       -3.6466330000       -2.3601620000        0.0143490000
 O       -2.0958290000        2.8834730000        0.1793800000
 C        2.2724260000        0.3058920000       -0.5995610000
 O        3.1228640000       -0.3665990000        0.3374090000
 H        2.3803230000        1.3977840000       -0.4971410000
 H        2.5940220000        0.0260540000       -1.6204680000
 C        4.4413550000       -0.1529120000        0.3755790000
 O        5.1277530000       -0.7801750000        1.1382340000
 C        5.0099390000        0.8965120000       -0.5528730000
 H        4.7875730000        0.6666040000       -1.6055070000
 H        6.0947810000        0.9312710000       -0.4040200000
 H        4.5783690000        1.8864500000       -0.3409940000

