%nproc=8
%mem=18000mb
#P PBE1PBE DEF2TZVPP OPT FREQ SCF(tight) INT(ultrafine)

 11-bis-1-methylethyl-3l_2c_gn

 2 1
 N        3.5219170000        0.1613250000        0.0814120000
 C        2.8606130000       -0.9383560000       -0.3236820000
 C        1.4781740000       -0.9708160000       -0.3626550000
 C        2.8424270000        1.2591770000        0.4552040000
 C        1.4580150000        1.2916880000        0.4307600000
 C        0.7416370000        0.1609220000        0.0172790000
 C       -0.7416370000        0.1609220000       -0.0172790000
 C       -1.4781740000       -0.9708160000        0.3626550000
 C       -1.4580150000        1.2916880000       -0.4307610000
 C       -2.8424270000        1.2591770000       -0.4552050000
 C       -2.8606130000       -0.9383560000        0.3236820000
 N       -3.5219170000        0.1613250000       -0.0814120000
 H       -0.9914930000       -1.8808170000        0.7185060000
 H       -3.4664270000       -1.7957060000        0.6217740000
 H        3.4664270000       -1.7957060000       -0.6217740000
 H        0.9914930000       -1.8808170000       -0.7185050000
 H        3.4356290000        2.1163130000        0.7807000000
 H        0.9560000000        2.2018320000        0.7644180000
 H       -3.4356290000        2.1163130000       -0.7807010000
 H       -0.9560000000        2.2018320000       -0.7644190000
 C        5.0310650000        0.1625870000        0.1145930000
 C        5.5340150000       -0.8702750000        1.1089940000
 H        5.3393490000       -1.9013930000        0.7764410000
 H        5.0992290000       -0.7258820000        2.1085160000
 C       -5.0310650000        0.1625870000       -0.1145930000
 C       -5.5340150000       -0.8702760000       -1.1089930000
 H       -5.3393490000       -1.9013930000       -0.7764390000
 H       -5.0992290000       -0.7258830000       -2.1085160000
 C        5.5850040000        0.0000740000       -1.2910110000
 H        5.2814510000        1.1674850000        0.4844360000
 H        5.3898550000       -1.0011350000       -1.7047400000
 H        6.6766080000        0.1246120000       -1.2515550000
 H        5.1874180000        0.7582810000       -1.9809120000
 C       -5.5850040000        0.0000750000        1.2910110000
 H       -5.2814510000        1.1674850000       -0.4844370000
 H       -5.3898550000       -1.0011340000        1.7047410000
 H       -6.6766080000        0.1246130000        1.2515550000
 H       -5.1874180000        0.7582820000        1.9809120000
 H        6.6242850000       -0.7628710000        1.2008710000
 H       -6.6242850000       -0.7628710000       -1.2008700000

