%nproc=8
%mem=18000mb
#P PBE1PBE DEF2TZVPP OPT(calcall) FREQ SCF(tight) INT(ultrafine)

 pyrrolidine_n_rd

-1 2
 C       -0.4145500000       -2.3358500000       -0.8265900000
 C       -0.7236100000       -2.6065400000       -2.3124600000
 C       -0.9820400000       -1.1941000000       -2.9176300000
 C       -0.7996200000       -0.2290600000       -1.7293000000
 N        0.1316100000       -0.9674200000       -0.8578600000
 H        0.1745800000       -0.5596100000        0.0756100000
 H        0.3173300000       -3.0322100000       -0.4051300000
 H       -1.3433000000       -2.4079500000       -0.2304000000
 H       -1.5818500000       -3.2745200000       -2.4285600000
 H        0.1344000000       -3.0782500000       -2.7991200000
 H       -1.9790600000       -1.1040200000       -3.3581500000
 H       -0.2505400000       -0.9754700000       -3.7003500000
 H       -1.7757900000       -0.0418400000       -1.2442200000
 H       -0.3714200000        0.7355900000       -2.0196100000

