%nproc=8
%mem=18000mb
#P PBE1PBE DEF2TZVPP OPT FREQ SCF(tight) INT(ultrafine)

 i47di-12-ch23-3-phen-56-met_n_gn

 0 1
 C       -3.2753970000       -0.6913700000       -0.0690980000
 C       -2.4389640000       -1.7648450000       -0.0837940000
 C       -2.7549130000        0.7105810000       -0.0194000000
 C       -1.3052280000        0.8376120000       -0.0016590000
 C       -0.4110380000       -0.2756080000        0.0047720000
 C       -0.9386880000       -1.6395380000       -0.0195800000
 O       -3.5053310000        1.6743170000       -0.0050200000
 O       -0.2455110000       -2.6437430000        0.0213860000
 C       -0.5303260000        1.9775000000       -0.0025770000
 N        0.7758580000        1.5902610000       -0.0143340000
 C        0.9008730000        0.2195600000       -0.0109350000
 C       -2.9673250000       -3.1631160000       -0.1385260000
 H       -3.5832160000       -3.3190020000       -1.0392420000
 H       -3.6155310000       -3.3775550000        0.7271480000
 H       -2.1371000000       -3.8799210000       -0.1445100000
 C       -4.7624170000       -0.8404010000       -0.1046590000
 H       -5.1251450000       -1.4352900000        0.7495010000
 H       -5.0889310000       -1.3665510000       -1.0167090000
 H       -5.2370540000        0.1486640000       -0.0766440000
 C        2.2122590000       -0.4390270000       -0.0224470000
 C        2.4534840000       -1.5822720000        0.7561080000
 C        3.2616950000        0.0684530000       -0.8078490000
 C        4.5148790000       -0.5379810000       -0.8048140000
 C        4.7440820000       -1.6652060000       -0.0180010000
 C        3.7074850000       -2.1842940000        0.7575040000
 H        1.6435150000       -2.0049670000        1.3491210000
 H        5.7266030000       -2.1434380000       -0.0153290000
 H        3.8755660000       -3.0723950000        1.3714640000
 H        3.0889620000        0.9292350000       -1.4567890000
 H        5.3138350000       -0.1325040000       -1.4304500000
 C       -0.6357700000        3.4614380000        0.0264730000
 C        0.7769890000        3.8616670000        0.4956380000
 H       -1.4413760000        3.8116100000        0.6856660000
 H       -0.8612800000        3.8509920000       -0.9821850000
 C        1.6937400000        2.7184450000        0.0306720000
 H        0.7956310000        3.9177960000        1.5950150000
 H        1.1051110000        4.8361550000        0.1085820000
 H        2.5339580000        2.5177580000        0.7102120000
 H        2.1096730000        2.9134060000       -0.9724090000

