%nproc=8
%mem=18000mb
#P PBE1PBE DEF2TZVPP OPT FREQ SCF(tight) INT(ultrafine)

 11-dimethyl-22-diphenyl-3p_2c_ox

 3 2
 N       -3.4347990000       -1.5381920000       -0.8093820000
 C       -2.6501690000       -2.6034770000       -1.0698560000
 C       -1.3034820000       -2.6094280000       -0.7598560000
 C       -2.9190870000       -0.4184730000       -0.2285920000
 C       -1.5569980000       -0.3767970000        0.0720780000
 C       -0.7227640000       -1.4753060000       -0.1777310000
 H       -1.1754040000        0.5245950000        0.5557410000
 H       -3.1326550000       -3.4609550000       -1.5443910000
 H       -0.7211030000       -3.4991710000       -1.0080270000
 C        0.7227530000       -1.4753130000        0.1776970000
 C        1.3034480000       -2.6094200000        0.7598720000
 C        2.6501320000       -2.6034780000        1.0698900000
 C        1.5570040000       -0.3768190000       -0.0721310000
 C        2.9190870000       -0.4185050000        0.2285550000
 N        3.4347790000       -1.5382130000        0.8093870000
 H        1.1754230000        0.5245710000       -0.5558070000
 H        0.7210510000       -3.4991420000        1.0080780000
 H        3.1325970000       -3.4609420000        1.5444700000
 C        4.8618130000       -1.6156430000        1.1800760000
 H        5.1783690000       -0.6654330000        1.6253700000
 H        5.4694490000       -1.8313700000        0.2902860000
 H        4.9933410000       -2.4220160000        1.9101690000
 C       -4.8618410000       -1.6156290000       -1.1800390000
 H       -4.9933600000       -2.4219140000       -1.9102330000
 H       -5.1784450000       -0.6653750000       -1.6252060000
 H       -5.4694450000       -1.8314930000       -0.2902590000
 C        3.8173690000        0.7259960000       -0.0855080000
 C        3.7287810000        1.9141450000        0.6350880000
 C        4.7438340000        0.6414790000       -1.1468550000
 C        5.5795180000        1.7377140000       -1.4662710000
 C        5.5003840000        2.9138920000       -0.7346290000
 C        4.5793610000        3.0061560000        0.3151590000
 H        3.0239870000        2.0174850000        1.4645020000
 H        4.8169730000       -0.2679480000       -1.7507130000
 H        6.2855830000        1.6450420000       -2.2956670000
 H        6.1483650000        3.7609570000       -0.9723690000
 H        4.5107280000        3.9240750000        0.9055850000
 C       -3.8173530000        0.7260310000        0.0854880000
 C       -3.7286410000        1.9142430000       -0.6349830000
 C       -4.7439390000        0.6414500000        1.1467330000
 C       -4.5792100000        3.0062550000       -0.3150380000
 C       -5.5003500000        2.9139260000        0.7346480000
 C       -5.5796130000        1.7376820000        1.4661660000
 H       -4.8171810000       -0.2680360000        1.7504910000
 H       -3.0237600000        2.0176310000       -1.4643180000
 H       -4.5104840000        3.9242270000       -0.9053710000
 H       -6.1483220000        3.7609960000        0.9723970000
 H       -6.2857720000        1.6449580000        2.2954750000

