%nproc=8
%mem=18000mb
#P PBE1PBE DEF2TZVPP OPT FREQ SCF(tight) INT(ultrafine)

 3-ethoxy-7a_n_gn

 0 1
 C       -4.6401250000        0.9488090000        0.6656190000
 C       -4.6937990000       -0.4255150000        0.8838170000
 C       -3.4864390000        1.5329260000        0.1479910000
 C       -2.3768040000        0.7504700000       -0.1948620000
 C       -2.4432050000       -0.6404410000        0.0105230000
 C       -3.5865830000       -1.2121980000        0.5656550000
 H       -5.4971450000        1.5801620000        0.9114720000
 H       -3.4397710000        2.6155240000       -0.0022980000
 H       -5.5903540000       -0.8883060000        1.3010830000
 H       -3.6091340000       -2.2920230000        0.7329960000
 N       -1.2328220000        1.3299440000       -0.7254440000
 C        0.0477110000        0.8049840000       -0.5431500000
 C        0.2399860000       -0.5800510000       -0.3842880000
 S       -1.1298560000       -1.6868590000       -0.5503180000
 C        1.1703470000        1.6300700000       -0.5065430000
 C        2.4581900000        1.1134380000       -0.3448880000
 C        2.6391680000       -0.2615040000       -0.1799480000
 C        1.5131210000       -1.0974800000       -0.1855760000
 H        1.0413350000        2.7110220000       -0.6141360000
 H        3.3029470000        1.8023030000       -0.3371710000
 H        1.6613140000       -2.1706150000       -0.0503280000
 H       -1.2706260000        2.3354430000       -0.8263550000
 O        3.8300430000       -0.8830560000       -0.0248970000
 C        5.0193440000       -0.1305780000        0.0560920000
 C        5.2496750000        0.4667460000        1.4303480000
 H        5.0389830000        0.6461910000       -0.7300490000
 H        5.8219230000       -0.8440060000       -0.1840360000
 H        6.2210110000        0.9836410000        1.4621800000
 H        4.4680350000        1.1920530000        1.7002140000
 H        5.2550670000       -0.3248810000        2.1940590000

