%nproc=8
%mem=18000mb
#P PBE1PBE DEF2TZVPP OPT FREQ SCF(tight) INT(ultrafine)

 3-ethoxy-7a_n_rd

-1 2
 C       -4.8337600000        0.8566920000       -0.1768100000
 C       -4.8980450000       -0.5510780000       -0.2206970000
 C       -3.5997010000        1.4866860000       -0.0350380000
 C       -2.4009630000        0.7624710000        0.0778460000
 C       -2.4756230000       -0.6705190000        0.0744890000
 C       -3.7188770000       -1.2849530000       -0.0956440000
 H       -5.7418760000        1.4599160000       -0.2641050000
 H       -3.5492100000        2.5823410000       -0.0127680000
 H       -5.8532190000       -1.0645860000       -0.3594290000
 H       -3.7495310000       -2.3797450000       -0.1137310000
 N       -1.1947240000        1.4199370000        0.2206210000
 C        0.0786070000        0.8835430000        0.0610840000
 C        0.2392100000       -0.5332960000       -0.1079270000
 S       -1.0509920000       -1.6132060000        0.4707410000
 C        1.1973080000        1.6999280000        0.0345450000
 C        2.5019510000        1.1934360000       -0.1576530000
 C        2.6515200000       -0.2018280000       -0.3536790000
 C        1.5486660000       -1.0373190000       -0.3261210000
 H        1.0617160000        2.7834830000        0.1468730000
 H        3.3484200000        1.8797430000       -0.1635440000
 H        1.7035700000       -2.1075660000       -0.4928610000
 H       -1.2455730000        2.4283400000        0.2460130000
 O        3.8633710000       -0.8050530000       -0.6433080000
 C        5.0404850000       -0.0728740000       -0.5075640000
 C        5.4681370000        0.1276590000        0.9383100000
 H        4.9669570000        0.9044710000       -1.0238460000
 H        5.8125870000       -0.6521330000       -1.0433960000
 H        6.4307140000        0.6629320000        0.9915140000
 H        4.7130130000        0.7092930000        1.4878510000
 H        5.5809300000       -0.8456120000        1.4408510000

