%nproc=8
%mem=18000mb
#P PBE1PBE DEF2TZVPP OPT FREQ SCF(tight) INT(ultrafine)

 14-nq_n_ox

 1 2
 C       -2.6341310000       -0.8124350000        0.0242520000
 C       -1.3814110000       -1.4641530000       -0.0079600000
 C       -0.2105660000       -0.7140650000       -0.0443510000
 C       -0.2983610000        0.6789400000        0.0197710000
 C       -1.5512900000        1.3397530000        0.0492880000
 C       -2.7156780000        0.5794410000        0.0685600000
 H       -3.6885410000        1.0744650000        0.1057030000
 H       -3.5472890000       -1.4131660000       -0.0002970000
 H       -1.3040060000       -2.5552690000        0.0097910000
 H       -1.5813220000        2.4309340000        0.0974400000
 C        1.1144680000       -1.4112610000       -0.0324900000
 C        2.3168930000       -0.5436710000        0.1402750000
 C        0.9536120000        1.4828060000        0.0093780000
 C        2.2526080000        0.7938980000        0.1627120000
 O        1.2069130000       -2.6052930000       -0.1435790000
 O        0.8731800000        2.6708480000       -0.2315920000
 H        3.1328620000        1.4372870000        0.2320560000
 H        3.2706880000       -1.0742130000        0.2200630000

