%nproc=8
%mem=18000mb
#P PBE1PBE DEF2TZVPP OPT FREQ SCF(tight) INT(ultrafine)

 10-n-methyl-3-piperidinyl-7b_n_ox

 1 2
 C       -1.9527990000       -3.3742330000       -1.1921760000
 C       -2.8763820000       -3.3849820000       -0.1355100000
 C       -1.2014420000       -2.2482360000       -1.4647200000
 C       -1.3378940000       -1.0694910000       -0.6947170000
 C       -2.3159370000       -1.0812900000        0.3367300000
 C       -3.0591060000       -2.2405650000        0.6148400000
 H       -1.8305730000       -4.2593050000       -1.8197790000
 H       -0.5256130000       -2.2737950000       -2.3173430000
 H       -3.4623540000       -4.2805360000        0.0793640000
 H       -3.7942570000       -2.2183240000        1.4230910000
 N       -0.5513250000        0.0495970000       -0.9443230000
 C       -0.9092120000        1.3309180000       -0.5432190000
 C       -1.8617010000        1.5631650000        0.4837700000
 S       -2.6319650000        0.2821790000        1.3502650000
 C       -0.3174260000        2.4639580000       -1.1473830000
 C       -0.6509860000        3.7426740000       -0.7471250000
 C       -1.5805290000        3.9546940000        0.2830870000
 C       -2.1801430000        2.8692220000        0.8907490000
 H        0.3992560000        2.3398580000       -1.9565770000
 H       -0.1873400000        4.5951900000       -1.2475380000
 H       -2.9151170000        3.0139400000        1.6863140000
 H       -1.8375280000        4.9682770000        0.5964270000
 C        0.7527190000       -0.1126300000       -1.6101930000
 C        1.9331970000        0.1959900000       -0.6883220000
 H        0.7811350000        0.5073380000       -2.5177020000
 H        0.8397280000       -1.1492040000       -1.9433960000
 C        3.2432270000        0.0786700000       -1.4665560000
 C        4.4298740000        0.3033890000       -0.5379300000
 H        3.2622250000        0.7945440000       -2.3052860000
 H        3.3115040000       -0.9313080000       -1.9121360000
 C        4.3541300000       -0.6118430000        0.6732260000
 H        4.4382120000        1.3509490000       -0.1943790000
 H        5.3736790000        0.1322670000       -1.0775740000
 N        3.0934730000       -0.4528600000        1.3702760000
 H        5.1706630000       -0.3767910000        1.3732620000
 H        4.5079150000       -1.6697070000        0.3518290000
 C        1.9572840000       -0.7249460000        0.5316270000
 H        1.8495570000        1.2301020000       -0.3123840000
 H        1.0425310000       -0.5815570000        1.1329910000
 H        1.9365580000       -1.7886090000        0.1793880000
 C        3.0478450000       -1.1627480000        2.6245260000
 H        3.8862480000       -0.8488400000        3.2637690000
 H        3.1072320000       -2.2675800000        2.5075790000
 H        2.1144180000       -0.9292320000        3.1599600000

