%nproc=8
%mem=18000mb
#P PBE1PBE DEF2TZVPP OPT FREQ SCF(tight) INT(ultrafine)

 10-n-methyl-3-piperidinyl-7b_n_gn

 0 1
 C       -2.9071320000       -2.9902600000       -1.1029190000
 C       -3.7445070000       -2.7834860000       -0.0100940000
 C       -1.8560670000       -2.1131570000       -1.3662070000
 C       -1.5931310000       -1.0305290000       -0.5148870000
 C       -2.4502870000       -0.8292910000        0.5835900000
 C       -3.5224970000       -1.6869720000        0.8213610000
 H       -3.0792720000       -3.8340560000       -1.7753370000
 H       -1.2357340000       -2.2725150000       -2.2495430000
 H       -4.5737690000       -3.4645730000        0.1922080000
 H       -4.1747250000       -1.4948990000        1.6767620000
 N       -0.5260190000       -0.1423890000       -0.7307490000
 C       -0.7526780000        1.2335480000       -0.5547460000
 C       -1.5277880000        1.6762370000        0.5329590000
 S       -2.0883670000        0.4832470000        1.7116580000
 C       -0.2433690000        2.1953470000       -1.4381890000
 C       -0.4791760000        3.5528070000       -1.2274860000
 C       -1.2540470000        3.9781780000       -0.1516920000
 C       -1.7912740000        3.0318560000        0.7192690000
 H        0.3496210000        1.8823950000       -2.2985860000
 H       -0.0582120000        4.2822830000       -1.9234550000
 H       -2.4102080000        3.3402630000        1.5652750000
 H       -1.4448630000        5.0411450000        0.0101720000
 C        0.6533730000       -0.5834210000       -1.4512430000
 C        1.9621600000       -0.1705540000       -0.7788390000
 H        0.6482120000       -0.2441930000       -2.5056040000
 H        0.6207210000       -1.6816030000       -1.4849160000
 C        3.1649890000       -0.6192410000       -1.6050610000
 C        4.4648390000       -0.2777560000       -0.8875710000
 H        3.1408920000       -0.1597350000       -2.6077900000
 H        3.1087820000       -1.7135560000       -1.7598800000
 C        4.4616570000       -0.8196880000        0.5338950000
 H        4.5861230000        0.8177570000       -0.8466140000
 H        5.3304350000       -0.6806890000       -1.4374750000
 N        3.3077820000       -0.3521570000        1.2687690000
 H        5.3716720000       -0.4933320000        1.0637430000
 H        4.4985840000       -1.9371330000        0.5027820000
 C        2.0634240000       -0.7280540000        0.6384140000
 H        1.9991500000        0.9291290000       -0.6933000000
 H        1.2250530000       -0.3494340000        1.2444120000
 H        1.9443500000       -1.8407410000        0.5965710000
 C        3.3518220000       -0.7048920000        2.6627620000
 H        4.2731470000       -0.3154900000        3.1239680000
 H        3.3244940000       -1.8047820000        2.8414840000
 H        2.4952160000       -0.2604070000        3.1925590000

