%nproc=8
%mem=18000mb
#P PBE1PBE DEF2TZVPP OPT FREQ SCF(tight) INT(ultrafine)

 3-methoxy-7a_n_rd

-1 2
 C        4.4521180000        0.8551030000        0.3281900000
 C        4.5097770000       -0.5533780000        0.3990560000
 C        3.2288200000        1.4838350000        0.1067970000
 C        2.0371250000        0.7598420000       -0.0603900000
 C        2.1075530000       -0.6741810000       -0.0315800000
 C        3.3383860000       -1.2873110000        0.2185860000
 H        5.3554090000        1.4583290000        0.4558400000
 H        3.1819210000        2.5792230000        0.0639790000
 H        5.4540310000       -1.0661020000        0.6013990000
 H        3.3658320000       -2.3818610000        0.2551850000
 N        0.8403450000        1.4166440000       -0.2777550000
 C       -0.4398430000        0.8844050000       -0.1868720000
 C       -0.6139000000       -0.5315430000       -0.0128920000
 S        0.7065750000       -1.6187410000       -0.5005330000
 C       -1.5573620000        1.7028540000       -0.2347520000
 C       -2.8705370000        1.2007860000       -0.1086930000
 C       -3.0338580000       -0.1905680000        0.0908390000
 C       -1.9331770000       -1.0302260000        0.1401110000
 H       -1.4129790000        2.7845480000       -0.3533380000
 H       -3.7169940000        1.8842880000       -0.1683360000
 H       -2.0997760000       -2.0985990000        0.3072920000
 H        0.8946350000        2.4244240000       -0.3169120000
 O       -4.2669730000       -0.7847300000        0.2761760000
 C       -5.3818710000        0.0339400000        0.3283870000
 H       -6.2531070000       -0.6122380000        0.5196910000
 H       -5.5588650000        0.5796830000       -0.6204680000
 H       -5.3213310000        0.7881320000        1.1383480000

