%nproc=8
%mem=18000mb
#P PBE1PBE DEF2TZVPP OPT FREQ SCF(tight) INT(ultrafine)

 3-methoxy-7a_n_gn

 0 1
 C       -4.3512180000        0.8517170000        0.5155870000
 C       -4.3889540000       -0.5337390000        0.6512280000
 C       -3.1770590000        1.4863980000        0.1173500000
 C       -2.0281700000        0.7460130000       -0.1873340000
 C       -2.0772380000       -0.6553550000       -0.0661620000
 C       -3.2440930000       -1.2797760000        0.3708120000
 H       -5.2378770000        1.4515750000        0.7335860000
 H       -3.1445250000        2.5765740000        0.0323220000
 H       -5.3023010000       -1.0366500000        0.9752040000
 H       -3.2538450000       -2.3677120000        0.4748490000
 N       -0.8626450000        1.3768990000       -0.5995290000
 C        0.4134210000        0.8673640000       -0.3548400000
 C        0.6254020000       -0.5215910000       -0.2607980000
 S       -0.7033460000       -1.6423300000       -0.5878410000
 C        1.5105660000        1.7110930000       -0.1932480000
 C        2.7959640000        1.2104460000        0.0299240000
 C        2.9931560000       -0.1674410000        0.1328190000
 C        1.8923050000       -1.0257330000       -0.0006690000
 H        1.3640470000        2.7935440000       -0.2521540000
 H        3.6250400000        1.9104860000        0.1331140000
 H        2.0551930000       -2.1016400000        0.0875040000
 H       -0.9165770000        2.3856690000       -0.6460120000
 O        4.1854270000       -0.7623240000        0.3585420000
 C        5.3192280000        0.0423530000        0.5044400000
 H        6.1669380000       -0.6333780000        0.6767690000
 H        5.2314850000        0.7281290000        1.3666430000
 H        5.5211960000        0.6404910000       -0.4026420000

