%nproc=8
%mem=18000mb
#P PBE1PBE DEF2TZVPP OPT FREQ SCF(tight) INT(ultrafine)

 37-dimethyl-7a_n_ox

 1 2
 C        3.6378660000        1.1309500000       -0.0000260000
 C        3.7906330000       -0.2767940000       -0.0000160000
 C        2.3940420000        1.7220470000       -0.0000190000
 C        1.2285390000        0.9300500000       -0.0000060000
 C        1.3645220000       -0.4789950000       -0.0000080000
 C        2.6405630000       -1.0586180000       -0.0000170000
 H        4.5279110000        1.7647100000       -0.0000470000
 H        2.3010520000        2.8111890000       -0.0000320000
 H        2.7276110000       -2.1481970000       -0.0000320000
 N        0.0000000000        1.5320690000       -0.0000030000
 C       -1.2285390000        0.9300510000        0.0000010000
 C       -1.3645230000       -0.4789950000       -0.0000030000
 S       -0.0000000000       -1.5536360000       -0.0000140000
 C       -2.3940410000        1.7220480000        0.0000140000
 C       -3.6378660000        1.1309510000        0.0000200000
 C       -3.7906350000       -0.2767920000        0.0000110000
 C       -2.6405630000       -1.0586160000        0.0000040000
 H       -2.3010510000        2.8111890000        0.0000240000
 H       -4.5279100000        1.7647120000        0.0000360000
 H       -2.7276130000       -2.1481950000        0.0000070000
 H        0.0000010000        2.5482910000       -0.0000030000
 C       -5.1544300000       -0.8884970000       -0.0000300000
 H       -5.7264210000       -0.5650560000        0.8840590000
 H       -5.1134870000       -1.9850630000        0.0004100000
 H       -5.7260100000       -0.5657780000       -0.8846560000
 C        5.1544310000       -0.8884960000        0.0000790000
 H        5.7266660000       -0.5646250000       -0.8836900000
 H        5.1134930000       -1.9850610000       -0.0008790000
 H        5.7257630000       -0.5661980000        0.8850230000

