%nproc=8
%mem=18000mb
#P PBE1PBE DEF2TZVPP OPT FREQ SCF(tight) INT(ultrafine)

 37-dimethyl-7a_n_gn

 0 1
 C        1.1141910000        0.2905190000        3.5832760000
 C       -0.2742000000        0.3351810000        3.7223640000
 C        1.7101520000        0.0146440000        2.3538140000
 C        0.9347760000       -0.2617700000        1.2250590000
 C       -0.4653850000       -0.2337840000        1.3573770000
 C       -1.0479690000        0.0813890000        2.5813600000
 H        1.7508460000        0.4887550000        4.4496610000
 H        2.8006500000        0.0075290000        2.2669480000
 H       -2.1394740000        0.1132960000        2.6474110000
 N        1.5267020000       -0.5510830000        0.0000000000
 C        0.9347760000       -0.2617700000       -1.2250590000
 C       -0.4653850000       -0.2337840000       -1.3573770000
 S       -1.4940370000       -0.7162680000       -0.0000000000
 C        1.7101520000        0.0146440000       -2.3538140000
 C        1.1141910000        0.2905190000       -3.5832760000
 C       -0.2742000000        0.3351810000       -3.7223640000
 C       -1.0479690000        0.0813890000       -2.5813600000
 H        2.8006500000        0.0075290000       -2.2669480000
 H        1.7508460000        0.4887550000       -4.4496610000
 H       -2.1394740000        0.1132960000       -2.6474110000
 H        2.5379410000       -0.5352990000        0.0000000000
 C       -0.9296070000        0.6360010000       -5.0398850000
 H       -0.1881890000        0.9179480000       -5.8008580000
 H       -1.6520270000        1.4628480000       -4.9515360000
 H       -1.4836870000       -0.2368760000       -5.4226380000
 C       -0.9296070000        0.6360010000        5.0398850000
 H       -0.1881890000        0.9179480000        5.8008580000
 H       -1.4836870000       -0.2368760000        5.4226380000
 H       -1.6520270000        1.4628480000        4.9515360000

