%nproc=8
%mem=18000mb
#P PBE1PBE DEF2TZVPP OPT FREQ SCF(tight) INT(ultrafine)

 4-methyl-3d_2c_gn

 2 1
 C       -3.8197400000       -0.1430610000       -0.2090380000
 C       -3.2588490000       -1.2777690000       -0.7864330000
 C       -2.9876090000        0.7637480000        0.4287850000
 N       -1.6575590000        0.5644180000        0.4985030000
 C       -1.8766500000       -1.4702700000       -0.7110650000
 C       -1.0779790000       -0.5355420000       -0.0645310000
 C        0.3887540000       -0.7518930000        0.0727440000
 N        1.2627640000        0.2263450000       -0.3248430000
 C        0.8630660000       -1.9508100000        0.5725880000
 C        2.2435140000       -2.1502340000        0.6789460000
 C        3.1034470000       -1.1392890000        0.2864750000
 C        2.6103020000        0.0689460000       -0.2223120000
 C       -0.7994380000        1.5487190000        1.1896750000
 C        0.0561040000        2.3397250000        0.2062840000
 H       -0.1827280000        0.9871900000        1.9076770000
 H       -1.4461500000        2.2120070000        1.7774210000
 C        0.6765070000        1.4658320000       -0.8773380000
 H        0.8293220000        2.8659660000        0.7876760000
 H       -0.5378630000        3.1191710000       -0.2962220000
 H        1.4470570000        2.0123000000       -1.4286380000
 H       -0.0723490000        1.1564250000       -1.6217030000
 H        0.1587780000       -2.7193910000        0.8965050000
 H        2.6356630000       -3.0908610000        1.0747570000
 H        4.1849710000       -1.2658440000        0.3649900000
 H       -3.8876800000       -2.0117150000       -1.2978460000
 H       -1.4115680000       -2.3445810000       -1.1710320000
 H       -4.8945000000        0.0491020000       -0.2427470000
 H       -3.3695730000        1.6678280000        0.9086780000
 C        3.5348640000        1.1531250000       -0.6570090000
 H        3.4868920000        1.3113830000       -1.7476340000
 H        4.5675100000        0.8767800000       -0.4131650000
 H        3.3180150000        2.1115310000       -0.1609650000

