%nproc=8
%mem=18000mb
#P PBE1PBE DEF2TZVPP OPT FREQ SCF(tight) INT(ultrafine)

 11-bis-4-nitrophenyl-3l_2c_ox

 3 2
 N        3.5273720000       -0.0002110000       -0.0010240000
 C        2.8541700000       -0.8253130000        0.8345640000
 C        1.4712620000       -0.8504020000        0.8462900000
 C        2.8545680000        0.8252400000       -0.8366060000
 C        1.4716800000        0.8510810000       -0.8482720000
 C        0.7432050000        0.0005660000       -0.0009400000
 C       -0.7431880000        0.0010650000       -0.0007950000
 C       -1.4715680000       -1.1905370000        0.1441330000
 C       -1.4708570000        1.1930620000       -0.1457220000
 C       -2.8539660000        1.1673970000       -0.1430990000
 C       -2.8546490000       -1.1640130000        0.1415960000
 N       -3.5267870000        0.0019020000       -0.0006390000
 H       -3.4556520000        2.0697720000       -0.2734840000
 H       -0.9788010000        2.1626260000       -0.2485730000
 H       -0.9800860000       -2.1604040000        0.2468580000
 H       -3.4568070000       -2.0661010000        0.2719590000
 H        0.9802380000        1.5175200000       -1.5604190000
 H        3.4561620000        1.4401170000       -1.5098730000
 H        3.4555500000       -1.4405250000        1.5077050000
 H        0.9794970000       -1.5165800000        1.5584560000
 C        4.9768420000       -0.0007950000       -0.0012040000
 C        5.6521290000        1.2134450000        0.1693270000
 C        5.6514880000       -1.2138920000       -0.1715410000
 C        7.0415300000       -1.2168710000       -0.1719260000
 C        7.7025370000        0.0008340000       -0.0015930000
 C        7.0415130000        1.2171480000        0.1710040000
 H        5.1093660000        2.1473580000        0.3341160000
 H        7.6067780000        2.1417450000        0.3134660000
 H        5.1093880000       -2.1476330000       -0.3390920000
 H        7.6059860000       -2.1412770000       -0.3181040000
 C       -4.9768240000        0.0021440000       -0.0003100000
 C       -5.6521520000       -0.8369990000       -0.8948810000
 C       -7.0412630000       -0.8397600000       -0.8988260000
 C       -7.7033380000        0.0015600000       -0.0040100000
 C       -5.6518510000        0.8404820000        0.8920550000
 C       -7.0420130000        0.8412910000        0.8947160000
 H       -5.1103610000        1.4718430000        1.6006140000
 H       -7.6060230000        1.4756430000        1.5829770000
 H       -5.1089710000       -1.4651010000       -1.6051570000
 H       -7.6058330000       -1.4701050000       -1.5905140000
 N       -9.1584360000       -0.0027350000       -0.0097110000
 O       -9.7496650000       -0.2116170000       -1.0335360000
 O       -9.7210790000        0.2037380000        1.0516670000
 N        9.1571700000        0.0056640000       -0.0007130000
 O        9.7252370000       -0.9861110000        0.4160650000
 O        9.7466070000        0.9750360000       -0.4004580000

