%nproc=8
%mem=18000mb
#P PBE1PBE DEF2TZVPP OPT FREQ SCF(tight) INT(ultrafine)

 231011-tetramethyl-3c_2c_ox

 3 2
 C        3.5393910000       -0.0501180000       -0.0647630000
 C        2.8809300000        1.2037890000        0.1418830000
 C        1.4846640000        1.1934470000        0.1553590000
 C        2.7257260000       -1.2076440000       -0.2290310000
 N        1.3959270000       -1.1731920000       -0.1948030000
 C        0.7247940000        0.0198470000       -0.0099510000
 C       -0.7247940000        0.0198470000        0.0099520000
 N       -1.3959270000       -1.1731920000        0.1948020000
 C        0.6115220000       -2.4007850000       -0.4403640000
 C       -0.6115230000       -2.4007850000        0.4403650000
 H        1.2367160000       -3.2744500000       -0.2104350000
 H        0.3523420000       -2.4362160000       -1.5123880000
 H       -0.3523420000       -2.4362140000        1.5123880000
 H       -1.2367160000       -3.2744500000        0.2104370000
 C       -1.4846640000        1.1934480000       -0.1553560000
 C       -2.8809300000        1.2037890000       -0.1418830000
 C       -3.5393910000       -0.0501190000        0.0647530000
 C       -2.7257260000       -1.2076450000        0.2290250000
 H        3.1865580000       -2.1862960000       -0.4017140000
 H       -3.1865580000       -2.1862970000        0.4017040000
 C       -3.6507840000        2.4529730000       -0.3384430000
 H       -3.0050100000        3.3268400000       -0.4875190000
 H       -4.3057760000        2.6467440000        0.5301990000
 H       -4.3241890000        2.3639590000       -1.2098840000
 C       -4.9995160000       -0.1841600000        0.1114720000
 H       -5.4244520000        0.4673050000        0.9047620000
 H       -5.3477680000       -1.2121320000        0.2699670000
 H       -5.4581500000        0.2163300000       -0.8173230000
 C        3.6507840000        2.4529730000        0.3384410000
 H        3.0050120000        3.3268240000        0.4876140000
 H        4.3056920000        2.6467960000       -0.5302550000
 H        4.3242730000        2.3639270000        1.2098120000
 C        4.9995160000       -0.1841600000       -0.1114720000
 H        5.3477650000       -1.2121010000       -0.2701750000
 H        5.4581040000        0.2160890000        0.8174570000
 H        5.4245050000        0.4675000000       -0.9045660000
 H        0.9666160000        2.1361700000        0.3381740000
 H       -0.9666160000        2.1361710000       -0.3381660000

