%nproc=8
%mem=18000mb
#P PBE1PBE DEF2TZVPP OPT FREQ SCF(tight) INT(ultrafine)

 37-dimethoxy-7a_n_ox

 1 2
 C       -3.6476610000       -1.1486720000       -0.0000040000
 C       -3.7837880000        0.2593550000        0.0000060000
 C       -2.3912940000       -1.7171840000       -0.0000130000
 C       -1.2291680000       -0.9229680000       -0.0000120000
 C       -1.3685190000        0.4904160000       -0.0000030000
 C       -2.6335070000        1.0618000000        0.0000060000
 H       -4.5250110000       -1.7951050000       -0.0000050000
 H       -2.2924810000       -2.8060960000       -0.0000200000
 H       -2.7622090000        2.1461500000        0.0000140000
 N        0.0000000000       -1.5233270000       -0.0000200000
 C        1.2291680000       -0.9229680000       -0.0000120000
 C        1.3685190000        0.4904160000       -0.0000030000
 S        0.0000000000        1.5716160000       -0.0000080000
 C        2.3912940000       -1.7171840000       -0.0000130000
 C        3.6476610000       -1.1486720000       -0.0000040000
 C        3.7837880000        0.2593550000        0.0000060000
 C        2.6335070000        1.0618000000        0.0000060000
 H        2.2924810000       -2.8060960000       -0.0000200000
 H        4.5250110000       -1.7951050000       -0.0000050000
 H        2.7622090000        2.1461500000        0.0000140000
 H        0.0000000000       -2.5393490000       -0.0000300000
 O        4.9420240000        0.8990850000        0.0000150000
 C        6.1619440000        0.1833380000        0.0000180000
 H        6.2573790000       -0.4417050000        0.9023800000
 H        6.9566270000        0.9376530000        0.0000290000
 H        6.2573910000       -0.4416920000       -0.9023510000
 O       -4.9420240000        0.8990850000        0.0000150000
 C       -6.1619440000        0.1833380000        0.0000170000
 H       -6.2573900000       -0.4416920000       -0.9023520000
 H       -6.9566270000        0.9376530000        0.0000270000
 H       -6.2573800000       -0.4417040000        0.9023790000

