%nproc=8
%mem=18000mb
#P PBE1PBE DEF2TZVPP OPT FREQ SCF(tight) INT(ultrafine)

 213-dimethyl-3e_2c_gn

 2 1
 C        3.4813750000       -0.4160110000        0.3614490000
 C        2.8776440000       -1.4313470000       -0.3963170000
 C        1.4780020000       -1.3657340000       -0.5257600000
 C        2.7114310000        0.5720680000        0.9385030000
 N        1.3684580000        0.6097380000        0.7964550000
 C        0.7419560000       -0.3481660000        0.0623590000
 H        4.5630640000       -0.3932090000        0.5139510000
 H        3.1540580000        1.3657190000        1.5446070000
 H        0.9482780000       -2.1221180000       -1.1091850000
 C       -0.7419330000       -0.3481670000       -0.0623660000
 N       -1.3684350000        0.6097270000       -0.7964570000
 C        0.6351760000        1.7307260000        1.4350450000
 C        0.5424690000        2.9608030000        0.5362410000
 H        1.1883210000        1.9702280000        2.3523840000
 H       -0.3492350000        1.3569770000        1.7521250000
 C       -0.6351620000        1.7307260000       -1.4350390000
 C       -0.5424800000        2.9607980000       -0.5362260000
 H       -1.1883030000        1.9702250000       -2.3523820000
 H        0.3492560000        1.3569930000       -1.7521120000
 H        1.5318250000        3.1372640000        0.0811210000
 H        0.3684520000        3.8265210000        1.1939320000
 H       -1.5318400000        3.1372380000       -0.0811050000
 H       -0.3684770000        3.8265250000       -1.1939100000
 C       -1.4779780000       -1.3657590000        0.5257340000
 C       -2.8776050000       -1.4313920000        0.3962700000
 C       -3.4813440000       -0.4160640000       -0.3615210000
 H       -0.9482550000       -2.1221570000        1.1091380000
 C       -2.7114130000        0.5720330000       -0.9385390000
 H       -3.1540350000        1.3656740000       -1.5446580000
 H       -4.5630270000       -0.3933060000       -0.5140820000
 C        3.6729950000       -2.5268990000       -1.0094850000
 H        4.5951290000       -2.1388320000       -1.4672140000
 H        3.1033920000       -3.0873720000       -1.7613220000
 H        3.9879280000       -3.2361040000       -0.2234690000
 C       -3.6730480000       -2.5268050000        1.0095700000
 H       -3.1023400000       -3.0896760000        1.7587540000
 H       -3.9917510000       -3.2338510000        0.2231590000
 H       -4.5931150000       -2.1378460000        1.4707680000

