%nproc=8
%mem=18000mb
#P PBE1PBE DEF2TZVPP OPT FREQ SCF(tight) INT(ultrafine)

 213-dimethyl-3e_2c_rd

 1 2
 C        3.5095810000       -0.3445500000        0.1345210000
 C        2.8493120000       -1.5437090000       -0.2710850000
 C        1.4701460000       -1.5240130000       -0.2856030000
 C        2.7734210000        0.7261840000        0.5416020000
 N        1.4069140000        0.7177150000        0.5620970000
 C        0.7153270000       -0.3823580000        0.0737110000
 H        4.5984170000       -0.2755390000        0.1408180000
 H        3.2427050000        1.6432240000        0.9033940000
 H        0.9247900000       -2.3910870000       -0.6623490000
 C       -0.7153260000       -0.3823600000       -0.0737190000
 N       -1.4069170000        0.7177140000       -0.5620990000
 C        0.7451000000        1.8034720000        1.3013040000
 C        0.5771300000        3.0864760000        0.4972880000
 H        1.3655960000        1.9990960000        2.1873960000
 H       -0.2152700000        1.4211800000        1.6771570000
 C       -0.7451050000        1.8034770000       -1.3012990000
 C       -0.5771400000        3.0864770000       -0.4972750000
 H       -1.3656010000        1.9991040000       -2.1873910000
 H        0.2152660000        1.4211900000       -1.6771540000
 H        1.5271320000        3.2937290000       -0.0242350000
 H        0.4412560000        3.9184310000        1.2055730000
 H       -1.5271430000        3.2937230000        0.0242500000
 H       -0.4412690000        3.9184370000       -1.2055550000
 C       -1.4701410000       -1.5240190000        0.2855880000
 C       -2.8493060000       -1.5437200000        0.2710700000
 C       -3.5095800000       -0.3445640000       -0.1345350000
 H       -0.9247820000       -2.3910950000        0.6623260000
 C       -2.7734240000        0.7261760000       -0.5416090000
 H       -3.2427110000        1.6432140000       -0.9034020000
 H       -4.5984170000       -0.2755590000       -0.1408400000
 C        3.6408410000       -2.7368470000       -0.6925530000
 H        4.2913560000       -3.0790060000        0.1286260000
 H        4.3028480000       -2.4882910000       -1.5377580000
 H        2.9968420000       -3.5735650000       -0.9927720000
 C       -3.6408310000       -2.7368490000        0.6925730000
 H       -2.9968280000       -3.5736870000        0.9924460000
 H       -4.2916580000       -3.0787890000       -0.1284480000
 H       -4.3025310000       -2.4883630000        1.5380430000

