%nproc=8
%mem=18000mb
#P PBE1PBE DEF2TZVPP OPT FREQ SCF(tight) INT(ultrafine)

 11-bis-2-hydroxyethyl-3l_2c_ox

 3 2
 N        3.5245570000       -0.1467870000       -0.2955830000
 C        2.8176200000       -1.2151100000        0.1328850000
 C        2.8885060000        0.9834520000       -0.6730840000
 C        1.4343410000       -1.1829850000        0.1837220000
 C        0.7440590000       -0.0263620000       -0.2111970000
 C        1.5073050000        1.0732840000       -0.6339360000
 C       -0.7440590000        0.0263670000       -0.2111960000
 C       -1.5073050000       -1.0732680000       -0.6339610000
 C       -2.8885070000       -0.9834360000       -0.6731070000
 N       -3.5245570000        0.1467950000       -0.2955790000
 C       -2.8176200000        1.2151070000        0.1329130000
 C       -1.4343410000        1.1829810000        0.1837500000
 H       -3.3846080000        2.1052280000        0.4176250000
 H       -0.9148830000        2.0735580000        0.5445770000
 H       -1.0455470000       -2.0002020000       -0.9816730000
 H       -3.5097860000       -1.8079210000       -1.0324790000
 H        3.5097850000        1.8079460000       -1.0324370000
 H        1.0455460000        2.0002250000       -0.9816250000
 H        3.3846080000       -2.1052370000        0.4175750000
 H        0.9148830000       -2.0735700000        0.5445290000
 C        4.9963790000       -0.2300190000       -0.3932350000
 C        5.7232660000        0.2190540000        0.8733540000
 H        5.3195240000        0.3863950000       -1.2446400000
 H        5.2669440000       -1.2698690000       -0.6270140000
 O        7.0677210000        0.0833110000        0.6261900000
 H        5.4270860000       -0.3758420000        1.7720240000
 H        5.4804630000        1.2725120000        1.1569530000
 C       -4.9963790000        0.2300290000       -0.3932300000
 C       -5.7232660000       -0.2190770000        0.8733480000
 H       -5.3195230000       -0.3863630000       -1.2446510000
 H       -5.2669440000        1.2698850000       -0.6269810000
 O       -7.0677210000       -0.0833260000        0.6261870000
 H       -5.4270860000        0.3757960000        1.7720330000
 H       -5.4804630000       -1.2725420000        1.1569200000
 H        7.6268660000        0.3485030000        1.3831230000
 H       -7.6268660000       -0.3485390000        1.3831130000

