%nproc=8
%mem=18000mb
#P PBE1PBE DEF2TZVPP OPT FREQ SCF(tight) INT(ultrafine)

 38-dimethyl-3-8-phenanthrolinium_2c_gn

 2 1
 N       -0.2378690000        3.5080000000        0.0000000000
 C        0.8937630000        2.8077070000        0.0000000000
 C        0.8926000000        1.4014470000        0.0000000000
 C       -0.3571760000        0.7242040000        0.0000000000
 C       -1.4461580000        2.8799200000        0.0000000000
 C       -1.5287230000        1.5102930000        0.0000000000
 C        2.1306260000        0.6802630000        0.0000000000
 C        2.1306260000       -0.6802640000        0.0000000000
 C       -0.3571750000       -0.7242050000        0.0000000000
 C        0.8926000000       -1.4014470000        0.0000000000
 C        0.8937620000       -2.8077080000        0.0000000000
 N       -0.2378690000       -3.5080000000        0.0000000000
 C       -1.5287230000       -1.5102930000        0.0000000000
 C       -1.4461600000       -2.8799190000        0.0000000000
 H        1.8271200000       -3.3751840000        0.0000000000
 H       -2.5240050000       -1.0652880000        0.0000000000
 H       -2.3275180000       -3.5238330000        0.0000000000
 H        3.0731230000        1.2325280000        0.0000000000
 H        3.0731230000       -1.2325280000        0.0000000000
 H       -2.3275180000        3.5238310000        0.0000000000
 H       -2.5240050000        1.0652900000        0.0000000000
 H        1.8271200000        3.3751830000        0.0000000000
 C       -0.2119170000        4.9810520000        0.0000000000
 H        0.8265720000        5.3281190000        0.0000000000
 H       -0.7241440000        5.3497560000        0.8989610000
 H       -0.7241440000        5.3497560000       -0.8989610000
 C       -0.2119190000       -4.9810520000        0.0000000000
 H        0.8265690000       -5.3281200000        0.0000000000
 H       -0.7241460000       -5.3497550000       -0.8989610000
 H       -0.7241460000       -5.3497550000        0.8989610000

