%nproc=8
%mem=18000mb
#P PBE1PBE DEF2TZVPP OPT FREQ SCF(tight) INT(ultrafine)

 6-phenyl-3b_2c_gn

 2 1
 C       -3.7256220000       -2.4102940000        0.1068030000
 C       -4.3707470000       -1.1679070000        0.1094810000
 C       -2.3524270000       -2.4485570000        0.0739230000
 C       -3.6133790000       -0.0067640000        0.0740100000
 C       -2.2165260000       -0.0657900000        0.0365570000
 N       -1.6163410000       -1.3001690000        0.0397970000
 C       -1.3675410000        1.1174010000       -0.0208430000
 C       -0.2271890000       -1.3977950000        0.0435360000
 C        0.5905800000       -0.3251560000       -0.0018400000
 N        0.0023860000        0.9685080000       -0.0698510000
 C       -1.9014620000        2.4080110000       -0.0553440000
 C       -1.0772420000        3.5187040000       -0.1642590000
 C        0.8134870000        2.0546800000       -0.2080600000
 C        0.3037500000        3.3323140000       -0.2585000000
 H       -4.2854940000       -3.3479300000        0.1327170000
 H       -1.7831900000       -3.3799050000        0.0761720000
 H       -5.4616590000       -1.1085400000        0.1388410000
 H       -4.1193250000        0.9572580000        0.0741180000
 H       -2.9796120000        2.5502380000       -0.0050070000
 H       -1.5097400000        4.5221870000       -0.1894700000
 H        1.8799350000        1.8360160000       -0.2752330000
 H        0.9910230000        4.1734370000       -0.3733280000
 H        0.1858310000       -2.4036630000        0.1149370000
 C        2.0544960000       -0.4856860000        0.0162710000
 C        2.8123920000       -0.0198430000        1.1073400000
 C        2.6816270000       -1.1727970000       -1.0353830000
 C        4.0590190000       -1.3760060000       -1.0018940000
 C        4.1853030000       -0.2374150000        1.1319740000
 C        4.8086300000       -0.9104420000        0.0779070000
 H        2.3298410000        0.4830730000        1.9505860000
 H        4.7727690000        0.1087410000        1.9852180000
 H        5.8881500000       -1.0766700000        0.1028680000
 H        2.0976590000       -1.5317550000       -1.8869660000
 H        4.5485900000       -1.9007950000       -1.8251490000

