%nproc=8
%mem=18000mb
#P PBE1PBE DEF2TZVPP OPT FREQ SCF(tight) INT(ultrafine)

 14-nq-2-methyl_n_rd

-1 2
 C        2.6910680000       -1.4088920000        0.0000020000
 C        3.1042560000       -0.0614610000        0.0000000000
 C        1.3417420000       -1.7172880000        0.0000020000
 C        0.3642320000       -0.7030760000        0.0000010000
 C        0.7814720000        0.6535150000       -0.0000010000
 C        2.1572190000        0.9483980000       -0.0000010000
 H        3.4379450000       -2.2094060000        0.0000030000
 H        4.1712740000        0.1834100000        0.0000000000
 H        0.9789980000       -2.7486340000        0.0000030000
 H        2.4301480000        2.0071610000       -0.0000020000
 C       -1.0586040000       -1.0735090000        0.0000020000
 C       -1.9991710000        0.0269910000       -0.0000030000
 C       -1.5753660000        1.3434610000       -0.0000050000
 C       -0.1972200000        1.7555410000       -0.0000030000
 H       -2.3094110000        2.1573090000       -0.0000090000
 O       -1.4323590000       -2.2697160000        0.0000010000
 O        0.1604790000        2.9543350000       -0.0000050000
 C       -3.4502240000       -0.3437350000        0.0000050000
 H       -3.6963120000       -0.9662380000        0.8768590000
 H       -3.6962500000       -0.9664800000       -0.8766920000
 H       -4.0977720000        0.5462630000       -0.0001300000

