%nproc=8
%mem=18000mb
#P PBE1PBE DEF2TZVPP OPT FREQ SCF(tight) INT(ultrafine)

 10-methyl-7b_n_ox

 1 2
 C       -3.6331460000        0.7196610000       -0.2905300000
 C       -3.7441680000       -0.6779390000       -0.2154350000
 C       -2.4040540000        1.3405100000       -0.1758840000
 C       -1.2232780000        0.5885970000        0.0159150000
 C       -1.3464570000       -0.8264780000        0.0547530000
 C       -2.6057390000       -1.4415880000       -0.0491530000
 H       -4.5244340000        1.3298670000       -0.4507150000
 H       -2.3561990000        2.4243420000       -0.2655890000
 H       -4.7192850000       -1.1609790000       -0.3014760000
 H       -2.6703450000       -2.5317140000       -0.0064690000
 N        0.0000010000        1.2249350000        0.1677080000
 C        1.2232780000        0.5885960000        0.0159130000
 C        1.3464570000       -0.8264790000        0.0547540000
 S       -0.0000000000       -1.8836860000        0.2771650000
 C        2.4040530000        1.3405100000       -0.1758870000
 C        3.6331450000        0.7196600000       -0.2905320000
 C        3.7441680000       -0.6779390000       -0.2154330000
 C        2.6057390000       -1.4415880000       -0.0491500000
 H        2.3561970000        2.4243410000       -0.2655960000
 H        4.5244340000        1.3298670000       -0.4507180000
 H        2.6703450000       -2.5317140000       -0.0064630000
 H        4.7192850000       -1.1609790000       -0.3014710000
 C        0.0000010000        2.6563960000        0.4546120000
 H       -0.8828580000        2.9057500000        1.0520180000
 H       -0.0000180000        3.2583750000       -0.4677640000
 H        0.8828830000        2.9057560000        1.0519840000

