%nproc=8
%mem=18000mb
#P PBE1PBE DEF2TZVPP OPT FREQ SCF(tight) INT(ultrafine)

 10-methyl-7b_n_rd

-1 2
 C        3.6512440000        0.7148430000       -0.3929660000
 C        3.7425800000       -0.6976610000       -0.4294210000
 C        2.4199720000        1.3281930000       -0.1658550000
 C        1.2378140000        0.5937070000        0.0454870000
 C        1.3495930000       -0.8444880000        0.0348820000
 C        2.5877780000       -1.4434410000       -0.2112800000
 H        4.5353280000        1.3363430000       -0.5617570000
 H        2.3800860000        2.4200750000       -0.1830980000
 H        4.6908690000       -1.1963320000       -0.6480600000
 H        2.6313440000       -2.5387530000       -0.2160770000
 N       -0.0000000000        1.2142440000        0.2543390000
 C       -1.2378140000        0.5937070000        0.0454860000
 C       -1.3495930000       -0.8444880000        0.0348820000
 S        0.0000000000       -1.8182230000        0.6046600000
 C       -2.4199710000        1.3281930000       -0.1658560000
 C       -3.6512440000        0.7148430000       -0.3929670000
 C       -3.7425800000       -0.6976600000       -0.4294210000
 C       -2.5877780000       -1.4434410000       -0.2112790000
 H       -2.3800860000        2.4200750000       -0.1831000000
 H       -4.5353270000        1.3363430000       -0.5617580000
 H       -2.6313440000       -2.5387530000       -0.2160760000
 H       -4.6908690000       -1.1963320000       -0.6480590000
 C       -0.0000000000        2.6202470000        0.5448780000
 H        0.8874560000        2.8751580000        1.1412350000
 H       -0.8874610000        2.8751590000        1.1412290000
 H        0.0000040000        3.2635540000       -0.3588310000

