%nproc=8
%mem=18000mb
#P PBE1PBE DEF2TZVPP OPT FREQ SCF(tight) INT(ultrafine)

 10-methyl-7b_n_gn

 0 1
 C       -3.5321510000        0.7121670000       -0.6150770000
 C       -3.6429040000       -0.6740520000       -0.5959330000
 C       -2.3270990000        1.3314540000       -0.2832540000
 C       -1.2136340000        0.5758360000        0.1105260000
 C       -1.3394140000       -0.8270820000        0.1314950000
 C       -2.5347380000       -1.4404650000       -0.2359870000
 H       -4.3862890000        1.3289050000       -0.9044900000
 H       -2.2577790000        2.4183830000       -0.3350280000
 H       -4.5823950000       -1.1622210000       -0.8631950000
 H       -2.5942910000       -2.5315130000       -0.2211330000
 N       -0.0000010000        1.1788580000        0.4753200000
 C        1.2136340000        0.5758370000        0.1105280000
 C        1.3394150000       -0.8270800000        0.1314970000
 S        0.0000010000       -1.8060990000        0.7369510000
 C        2.3270990000        1.3314560000       -0.2832560000
 C        3.5321500000        0.7121690000       -0.6150790000
 C        3.6429060000       -0.6740500000       -0.5959320000
 C        2.5347390000       -1.4404630000       -0.2359840000
 H        2.2577770000        2.4183840000       -0.3350350000
 H        4.3862880000        1.3289070000       -0.9044940000
 H        2.5942940000       -2.5315110000       -0.2211300000
 H        4.5823970000       -1.1622180000       -0.8631930000
 C       -0.0000040000        2.5856290000        0.7863100000
 H       -0.8875930000        2.8245020000        1.3879940000
 H       -0.0000090000        3.2413180000       -0.1058680000
 H        0.8875860000        2.8245080000        1.3879890000

