%nproc=8
%mem=18000mb
#P PBE1PBE DEF2TZVPP OPT FREQ SCF(tight) INT(ultrafine)

 11-diethyl-3l_2c_ox

 3 2
 N        3.5368870000        0.1661640000       -0.0434300000
 C        2.8745520000       -0.9840470000        0.1360990000
 C        2.8523180000        1.3416920000       -0.2153300000
 C        1.4801690000       -1.0096010000        0.1451590000
 C        0.7308970000        0.1945950000       -0.0170150000
 C        1.4789900000        1.3849170000       -0.1987350000
 C       -0.7308970000        0.1945950000        0.0170150000
 C       -1.4801690000       -1.0096010000       -0.1451590000
 C       -2.8745520000       -0.9840470000       -0.1360990000
 N       -3.5368870000        0.1661640000        0.0434300000
 C       -2.8523180000        1.3416920000        0.2153300000
 C       -1.4789900000        1.3849170000        0.1987350000
 H       -3.4598870000        2.2393460000        0.3679870000
 H       -1.0067320000        2.3557130000        0.3601150000
 H       -1.0048680000       -1.9787540000       -0.3108790000
 H       -3.4651790000       -1.8930160000       -0.2721280000
 H        3.4598870000        2.2393470000       -0.3679870000
 H        1.0067320000        2.3557130000       -0.3601140000
 H        3.4651790000       -1.8930160000        0.2721280000
 H        1.0048680000       -1.9787540000        0.3108790000
 C        5.0152170000        0.2250740000       -0.0669220000
 C        5.7588500000       -1.0576740000        0.1203520000
 H        5.2928230000        0.9820290000        0.7011320000
 H        5.2768510000        0.7202410000       -1.0290700000
 H        5.5746200000       -1.5324110000        1.1017920000
 H        6.8341190000       -0.8268440000        0.0775110000
 H        5.5604440000       -1.7991910000       -0.6752740000
 C       -5.0152170000        0.2250740000        0.0669220000
 C       -5.7588500000       -1.0576740000       -0.1203520000
 H       -5.2928220000        0.9820290000       -0.7011320000
 H       -5.2768510000        0.7202420000        1.0290700000
 H       -5.5746210000       -1.5324110000       -1.1017910000
 H       -6.8341190000       -0.8268440000       -0.0775110000
 H       -5.5604440000       -1.7991910000        0.6752740000

