%nproc=8
%mem=18000mb
#P PBE1PBE DEF2TZVPP OPT FREQ SCF(tight) INT(ultrafine)

 11-diethyl-3l_2c_rd

 1 2
 N        3.5271550000       -0.0000300000       -0.3868350000
 C        2.8362280000       -1.1724340000       -0.3078420000
 C        2.8362440000        1.1723910000       -0.3079630000
 C        1.4788070000       -1.2022840000       -0.1610080000
 C        0.7105020000        0.0000050000       -0.0765630000
 C        1.4788230000        1.2022760000       -0.1611330000
 C       -0.7105010000        0.0000230000        0.0765600000
 C       -1.4788230000       -1.2022470000        0.1611260000
 C       -2.8362430000       -1.1723630000        0.3079570000
 N       -3.5271540000        0.0000600000        0.3868340000
 C       -2.8362270000        1.1724630000        0.3078430000
 C       -1.4788050000        1.2023130000        0.1610090000
 H       -3.4307170000        2.0851500000        0.3748650000
 H       -1.0069640000        2.1830510000        0.1158690000
 H       -1.0069950000       -2.1829960000        0.1160820000
 H       -3.4307470000       -2.0850350000        0.3750690000
 H        3.4307480000        2.0850640000       -0.3750780000
 H        1.0069950000        2.1830240000       -0.1160930000
 H        3.4307190000       -2.0851220000       -0.3748610000
 H        1.0069650000       -2.1830220000       -0.1158670000
 C        4.9901950000       -0.0000450000       -0.4711930000
 C        5.6614730000        0.0000220000        0.8901330000
 H        5.2840140000        0.8821160000       -1.0585950000
 H        5.2840020000       -0.8822710000       -1.0585020000
 H        5.3877010000        0.8916490000        1.4736270000
 H        6.7538410000        0.0000080000        0.7646970000
 H        5.3876890000       -0.8915400000        1.4737200000
 C       -4.9901940000        0.0000640000        0.4711970000
 C       -5.6614780000       -0.0001710000       -0.8901250000
 H       -5.2840060000        0.8823590000        1.0584000000
 H       -5.2840010000       -0.8820290000        1.0587080000
 H       -5.3877060000        0.8913260000       -1.4738170000
 H       -6.7538450000       -0.0001570000       -0.7646840000
 H       -5.3876990000       -0.8918620000       -1.4735170000

