%nproc=8
%mem=18000mb
#P PBE1PBE DEF2TZVPP OPT FREQ SCF(tight) INT(ultrafine)

 3j_2c_gn

 2 1
 C       -5.7173260000        0.1576780000       -0.1037710000
 C       -4.8600200000        0.8877150000        0.6829550000
 C       -3.4608150000        0.6610040000        0.6184830000
 C       -5.2018280000       -0.8226650000       -0.9802090000
 C       -3.8462640000       -1.0738280000       -1.0736710000
 C       -2.9501410000       -0.3365960000       -0.2752010000
 C       -2.5557270000        1.3854300000        1.4115530000
 C       -1.1985180000        1.1334350000        1.3250440000
 C       -0.7318940000        0.1572340000        0.4423280000
 N       -1.5812620000       -0.5522040000       -0.3286470000
 C        0.7318910000       -0.1572560000        0.4423240000
 C        1.1985110000       -1.1334980000        1.3249980000
 C        2.5557200000       -1.3854980000        1.4115020000
 N        1.5812640000        0.5522180000       -0.3286130000
 C        2.9501420000        0.3366090000       -0.2751680000
 C        3.4608120000       -0.6610340000        0.6184710000
 C        4.8600160000       -0.8877470000        0.6829400000
 C        5.7173270000       -0.1576720000       -0.1037450000
 C        3.8462700000        1.0738810000       -1.0735970000
 C        5.2018330000        0.8227140000       -0.9801380000
 C        1.0811190000        1.5762960000       -1.2530310000
 H        1.4987500000        2.5560710000       -0.9844320000
 H       -0.0094260000        1.6332790000       -1.1946280000
 H        1.3739860000        1.3228680000       -2.2808410000
 C       -1.0811120000       -1.5762390000       -1.2531100000
 H       -1.4987530000       -2.5560240000       -0.9845640000
 H        0.0094320000       -1.6332320000       -1.1946960000
 H       -1.3739640000       -1.3227590000       -2.2809110000
 H       -2.9305520000        2.1457650000        2.1023780000
 H       -0.4825380000        1.6762920000        1.9442550000
 H        0.4825280000       -1.6763840000        1.9441800000
 H        2.9305400000       -2.1458650000        2.1022930000
 H       -5.8900860000       -1.4006070000       -1.6019830000
 H       -3.5013070000       -1.8417130000       -1.7638290000
 H       -6.7946830000        0.3295460000       -0.0556760000
 H       -5.2377240000        1.6498230000        1.3684240000
 H        3.5013160000        1.8418000000       -1.7637170000
 H        5.8900950000        1.4006880000       -1.6018790000
 H        5.2377170000       -1.6498890000        1.3683740000
 H        6.7946830000       -0.3295420000       -0.0556530000

