%nproc=8
%mem=18000mb
#P PBE1PBE DEF2TZVPP OPT FREQ SCF(tight) INT(ultrafine)

 3j_2c_rd

 1 2
 C        5.6231900000       -0.4590400000        0.1399620000
 C        4.9196870000        0.6833120000        0.4727560000
 C        3.5250380000        0.7525580000        0.2876850000
 C        4.9376690000       -1.5625700000       -0.3856300000
 C        3.5642650000       -1.5268200000       -0.5801810000
 C        2.8370450000       -0.3723170000       -0.2441550000
 C        2.7724460000        1.9205650000        0.6076300000
 C        1.4119790000        1.9208210000        0.4688580000
 C        0.7234890000        0.7787960000       -0.0062730000
 N        1.4590180000       -0.3003150000       -0.4457920000
 C       -0.7234950000        0.7788030000        0.0062400000
 C       -1.4119880000        1.9208150000       -0.4689110000
 C       -2.7724600000        1.9205670000       -0.6076400000
 N       -1.4590250000       -0.3002870000        0.4458140000
 C       -2.8370470000       -0.3723080000        0.2441600000
 C       -3.5250490000        0.7525660000       -0.2876680000
 C       -4.9197010000        0.6833080000       -0.4727230000
 C       -5.6231880000       -0.4590570000       -0.1399430000
 C       -3.5642460000       -1.5268350000        0.5801490000
 C       -4.9376500000       -1.5625980000        0.3856080000
 C       -0.8518420000       -1.2997440000        1.3152320000
 H       -1.4490770000       -1.3870900000        2.2340070000
 H        0.1583650000       -0.9844050000        1.5935810000
 H       -0.8031880000       -2.2875660000        0.8357480000
 C        0.8518550000       -1.2998070000       -1.3151850000
 H        1.4489240000       -1.3869600000       -2.2340900000
 H       -0.1584740000       -0.9846600000       -1.5932970000
 H        0.8034980000       -2.2876740000       -0.8357640000
 H        3.2885400000        2.7973130000        1.0046070000
 H        0.8224130000        2.7771410000        0.7978740000
 H       -0.8224270000        2.7771230000       -0.7979690000
 H       -3.2885600000        2.7973120000       -1.0046170000
 H        5.4868910000       -2.4699910000       -0.6461490000
 H        3.0663500000       -2.4078170000       -0.9825730000
 H        6.7042350000       -0.5031420000        0.2845210000
 H        5.4357470000        1.5547890000        0.8822860000
 H       -3.0663030000       -2.4078410000        0.9824900000
 H       -5.4868590000       -2.4700350000        0.6460960000
 H       -5.4357750000        1.5547850000       -0.8822380000
 H       -6.7042340000       -0.5031660000       -0.2844890000

