%nproc=8
%mem=18000mb
#P PBE1PBE DEF2TZVPP OPT FREQ SCF(tight) INT(ultrafine)

 7l_n_rd

-1 2
 C       -3.2593460000       -1.7532300000        0.3938760000
 C       -3.6554720000       -0.4212180000        0.5291380000
 C       -1.9410930000       -2.0429400000        0.0482340000
 C       -0.9945220000       -1.0335810000       -0.1962920000
 C       -1.4142580000        0.3183000000       -0.0886440000
 C       -2.7344630000        0.5935470000        0.2874890000
 H       -3.9653710000       -2.5695590000        0.5721990000
 H       -1.6164720000       -3.0872440000       -0.0260480000
 H       -4.6831380000       -0.1737700000        0.8118660000
 H       -2.9907620000        1.6561470000        0.3503830000
 N        0.2890950000       -1.4116590000       -0.5645820000
 C        1.4851270000       -0.7874540000       -0.1889890000
 C        1.4718470000        0.4584030000        0.4496180000
 S       -0.4162330000        1.7216300000       -0.5388640000
 C        2.6995870000       -1.4494330000       -0.4504290000
 C        3.9065480000       -0.8710910000       -0.0581700000
 C        3.9099510000        0.3670060000        0.5865170000
 C        2.6887910000        1.0158220000        0.8235130000
 H        2.6999700000       -2.4262470000       -0.9525320000
 H        4.8468330000       -1.3937130000       -0.2606880000
 H        2.7044460000        2.0008060000        1.3120690000
 H        4.8562920000        0.8247900000        0.8955850000
 H        0.3796910000       -2.3950770000       -0.7825710000
 O       -1.3214520000        2.9418280000       -0.2701910000

