%nproc=8
%mem=18000mb
#P PBE1PBE DEF2TZVPP OPT FREQ SCF(tight) INT(ultrafine)

 3-ethoxy-3c_2c_rd

 1 2
 C       -4.7133770000       -0.1441750000        0.0452420000
 C       -4.1199600000       -1.4296420000        0.1563760000
 C       -2.7539810000       -1.5522830000        0.1335030000
 C       -3.8971580000        0.9382080000       -0.1000990000
 N       -2.5387600000        0.8146160000       -0.1345890000
 C       -1.9138950000       -0.4185660000       -0.0033120000
 C       -0.4889590000       -0.4865500000       -0.0035260000
 N        0.2584550000        0.6670630000        0.1254500000
 C       -1.7093440000        1.9722100000       -0.4217290000
 C       -0.4419190000        1.9093230000        0.4017470000
 H       -2.2719430000        2.8837330000       -0.1811020000
 H       -1.4641820000        1.9943960000       -1.4978670000
 H       -0.6783440000        1.9718750000        1.4784550000
 H        0.2122820000        2.7533450000        0.1471060000
 C        0.2318070000       -1.7015290000       -0.1329820000
 C        1.5969810000       -1.7282650000       -0.1436190000
 C        2.3360950000       -0.5125350000       -0.0246520000
 C        1.6310500000        0.6630780000        0.1088660000
 H       -5.7941650000       -0.0064400000        0.0760470000
 H       -2.2990050000       -2.5346690000        0.2530200000
 H       -0.3196050000       -2.6328040000       -0.2554480000
 H       -4.7457850000       -2.3159440000        0.2745620000
 O        3.6567950000       -0.6180050000       -0.0596160000
 C        4.4651190000        0.5480900000        0.0557990000
 C        5.9106700000        0.1325460000       -0.0150790000
 H        4.2394520000        1.0485000000        1.0155210000
 H        4.2089860000        1.2457980000       -0.7628310000
 H        6.1588400000       -0.5595470000        0.8019250000
 H        6.5578210000        1.0167310000        0.0719610000
 H        6.1285100000       -0.3628700000       -0.9717400000
 H        2.1505400000       -2.6616900000       -0.2573310000
 H        2.1056540000        1.6371770000        0.2121320000
 H       -4.2800520000        1.9552430000       -0.2027290000

