%nproc=8
%mem=18000mb
#P PBE1PBE DEF2TZVPP OPT FREQ SCF(tight) INT(ultrafine)

 3-ethoxy-3c_2c_ox

 3 2
 C        4.6989030000       -0.1858140000        0.0641550000
 C        4.1181750000       -1.4301590000       -0.1471500000
 C        2.7216390000       -1.5340430000       -0.1716210000
 C        3.8697350000        0.9293510000        0.2342820000
 N        2.5353000000        0.8167990000        0.1961480000
 C        1.9234150000       -0.3985320000        0.0064020000
 C        0.4621350000       -0.4715160000       -0.0063920000
 N       -0.2684150000        0.6749470000       -0.2282170000
 C        1.6851320000        1.9987570000        0.4286710000
 C        0.4783200000        1.9361500000       -0.4730890000
 H        2.2623900000        2.9059370000        0.2014070000
 H        1.4107920000        2.0302160000        1.4970420000
 H        0.7554500000        1.9571690000       -1.5414460000
 H       -0.1870050000        2.7865580000       -0.2713140000
 C       -0.2338160000       -1.6846830000        0.1958100000
 C       -1.6065340000       -1.7312390000        0.1514330000
 C       -2.3399890000       -0.5347160000       -0.1099420000
 C       -1.6024660000        0.6788430000       -0.2857070000
 H        5.7851040000       -0.0516240000        0.0967540000
 H        2.2660480000       -2.5077340000       -0.3616560000
 H        0.3197340000       -2.5982130000        0.4209790000
 H        4.7374340000       -2.3209670000       -0.2953230000
 O       -3.6202030000       -0.6346800000       -0.1688430000
 C       -4.6546940000        0.3634410000       -0.4234600000
 C       -5.6992870000        0.2824870000        0.6643010000
 H       -5.0802240000        0.0152760000       -1.3874670000
 H       -4.2000440000        1.3553790000       -0.5555500000
 H       -6.1282380000       -0.7257870000        0.7554170000
 H       -6.5126850000        0.9654230000        0.3686410000
 H       -5.2918600000        0.6055580000        1.6339810000
 H       -2.1591400000       -2.6636400000        0.3153140000
 H       -2.0863480000        1.6412180000       -0.4756230000
 H        4.2780150000        1.9304830000        0.4079160000

