%nproc=8
%mem=18000mb
#P PBE1PBE DEF2TZVPP OPT FREQ SCF(tight) INT(ultrafine)

 indigodisulfonate_2a_gn

-2 1
 C        5.3302550000       -0.2291780000        0.0347800000
 C        5.0231770000       -1.5983180000        0.0338450000
 C        4.3074330000        0.7122020000        0.0345260000
 C        2.9813740000        0.2664740000        0.0192340000
 C        2.6851790000       -1.1160590000        0.0076120000
 C        3.7088900000       -2.0632460000        0.0179980000
 H        5.8613210000       -2.2995650000        0.0657290000
 H        4.5597540000        1.7749390000        0.0582670000
 H        3.4871670000       -3.1335920000        0.0220290000
 S        7.0723250000        0.2793460000       -0.0126890000
 C        1.7038980000        0.9855080000        0.0188300000
 N        1.3151180000       -1.3081020000       -0.0030090000
 C        0.6741450000       -0.0963200000        0.0032340000
 C       -0.6741460000        0.0963210000       -0.0034410000
 N       -1.3151180000        1.3081030000        0.0027750000
 C       -1.7038990000       -0.9855070000       -0.0190440000
 C       -2.9813740000       -0.2664740000       -0.0193510000
 C       -2.6851800000        1.1160590000       -0.0077910000
 C       -3.7088910000        2.0632460000       -0.0181450000
 C       -5.0231790000        1.5983160000       -0.0338870000
 C       -5.3302570000        0.2291760000       -0.0347440000
 C       -4.3074340000       -0.7122030000       -0.0345240000
 H       -4.5597580000       -1.7749410000       -0.0582120000
 H       -3.4871690000        3.1335920000       -0.0222190000
 H       -5.8613260000        2.2995620000       -0.0657370000
 O        7.0549430000        1.6780970000        0.4633240000
 O        7.4462070000        0.1176590000       -1.4323620000
 O        7.7376980000       -0.6790630000        0.8969320000
 S       -7.0723230000       -0.2793460000        0.0128670000
 O       -7.0549750000       -1.6781160000       -0.4630890000
 O       -7.7377610000        0.6790250000       -0.8967470000
 O       -7.4461070000       -0.1176000000        1.4325590000
 H        0.8001260000       -2.1809030000       -0.0111980000
 H       -0.8001270000        2.1809040000        0.0109320000
 O       -1.4501860000       -2.1843930000       -0.0277580000
 O        1.4501850000        2.1843930000        0.0276940000

