%nproc=8
%mem=18000mb
#P PBE1PBE DEF2TZVPP OPT(calcall) FREQ SCF(tight) INT(ultrafine)

 11-bis-cyanomethyl-22-dimethyl-3p_2c_rd

 1 2
 N        3.5449810000        0.0298030000        0.0000670000
 C        2.8442290000       -1.1454090000        0.0002900000
 C        1.4824550000       -1.1771520000        0.0003190000
 C        0.7150570000        0.0250600000        0.0001360000
 C        2.8630730000        1.2309450000       -0.0001080000
 C        1.4903160000        1.2220270000       -0.0000740000
 C       -0.7150570000        0.0250600000        0.0001600000
 C       -1.4824550000       -1.1771520000        0.0003270000
 C       -2.8442290000       -1.1454090000        0.0003390000
 N       -3.5449810000        0.0298030000        0.0001720000
 C       -2.8630730000        1.2309450000        0.0000270000
 C       -1.4903160000        1.2220270000        0.0000180000
 H        3.4384250000       -2.0600500000        0.0004200000
 H        1.0133000000       -2.1599280000        0.0004900000
 H        1.0052200000        2.1971520000       -0.0002290000
 H       -1.0133000000       -2.1599280000        0.0004400000
 H       -3.4384250000       -2.0600500000        0.0004450000
 H       -1.0052200000        2.1971520000       -0.0001040000
 C        3.6483210000        2.5008420000       -0.0003390000
 H        4.2935150000        2.5870820000       -0.8890620000
 H        4.2937860000        2.5872510000        0.8881670000
 H        2.9680570000        3.3602610000       -0.0003230000
 C       -3.6483210000        2.5008420000       -0.0001260000
 H       -4.2938110000        2.5871840000        0.8883680000
 H       -4.2934900000        2.5871490000       -0.8888610000
 H       -2.9680570000        3.3602610000       -0.0000280000
 C        5.0102070000        0.0414930000        0.0001750000
 C        5.6023320000       -1.2889790000       -0.0002150000
 H        5.3805980000        0.5797410000        0.8878720000
 H        5.3807000000        0.5802860000       -0.8871380000
 N        6.0974890000       -2.3333390000       -0.0005110000
 C       -5.0102070000        0.0414930000        0.0003860000
 C       -5.6023320000       -1.2889790000       -0.0003210000
 H       -5.3807570000        0.5805180000       -0.8867590000
 H       -5.3805410000        0.5795100000        0.8882500000
 N       -6.0974890000       -2.3333380000       -0.0008590000

