%nproc=8
%mem=18000mb
#P PBE1PBE DEF2TZVPP OPT FREQ SCF(tight) INT(ultrafine)

 11-diphenyl-3l_2c_gn

 2 1
 N        0.0000000000       -0.0000000000        3.5254380000
 C       -1.1144950000        0.3602650000        2.8510510000
 C       -1.1386640000        0.3753320000        1.4692830000
 C        1.1144950000       -0.3602650000        2.8510510000
 C        1.1386640000       -0.3753320000        1.4692830000
 C        0.0000000000       -0.0000000000        0.7404550000
 C       -0.0000000000        0.0000000000       -0.7404550000
 C       -1.1386000000       -0.3755280000       -1.4692830000
 C        1.1386000000        0.3755280000       -1.4692830000
 C        1.1144330000        0.3604570000       -2.8510510000
 C       -1.1144330000       -0.3604570000       -2.8510510000
 N       -0.0000000000        0.0000000000       -3.5254380000
 H       -2.0585550000       -0.6939560000       -0.9756010000
 H       -1.9853780000       -0.6147180000       -3.4575750000
 H       -1.9854840000        0.6143750000        3.4575750000
 H       -2.0586750000        0.6936000000        0.9756010000
 H        1.9854840000       -0.6143750000        3.4575750000
 H        2.0586750000       -0.6936000000        0.9756010000
 H        1.9853780000        0.6147180000       -3.4575750000
 H        2.0585550000        0.6939560000       -0.9756010000
 C       -0.0000000000        0.0000000000       -4.9702900000
 C       -0.4762040000       -1.1242500000       -5.6483870000
 C       -0.4713130000       -1.1152720000       -7.0400410000
 C       -0.0000000000        0.0000000000       -7.7341080000
 C        0.4762040000        1.1242500000       -5.6483870000
 C        0.4713130000        1.1152720000       -7.0400410000
 C        0.0000000000       -0.0000000000        4.9702900000
 C       -0.4764020000        1.1241660000        5.6483880000
 C       -0.4715100000        1.1151890000        7.0400410000
 C        0.0000000000       -0.0000000000        7.7341080000
 C        0.4715100000       -1.1151890000        7.0400410000
 C        0.4764020000       -1.1241660000        5.6483880000
 H       -0.8101950000       -2.0117160000       -5.1050730000
 H       -0.8263240000       -1.9924630000       -7.5849500000
 H       -0.0000000000        0.0000000000       -8.8263080000
 H        0.8101950000        2.0117160000       -5.1050730000
 H        0.8263240000        1.9924630000       -7.5849500000
 H       -0.8105500000        2.0115730000        5.1050730000
 H       -0.8266750000        1.9923180000        7.5849500000
 H        0.0000000000       -0.0000000000        8.8263080000
 H        0.8266750000       -1.9923180000        7.5849500000
 H        0.8105500000       -2.0115730000        5.1050730000

