%nproc=8
%mem=18000mb
#P PBE1PBE DEF2TZVPP OPT FREQ SCF(tight) INT(ultrafine)

 12-nq_n_ox

 1 2
 C        3.0154930000        0.3892120000        0.1056030000
 C        1.9774810000        1.3199530000       -0.0121110000
 C        0.6491780000        0.8946930000       -0.0695980000
 C        2.7418640000       -0.9760540000        0.1509620000
 C        1.4235610000       -1.4284960000        0.0768080000
 C        0.3866150000       -0.4944130000       -0.0339850000
 H        3.5560950000       -1.6997500000        0.2312590000
 H        1.1948190000       -2.4963590000        0.0968220000
 H        4.0489030000        0.7395650000        0.1585750000
 H        2.2035930000        2.3881800000       -0.0513130000
 C       -0.9695330000       -1.0095610000       -0.1511810000
 C       -2.2243860000        0.2308910000        0.1289390000
 C       -1.7460060000        1.5689860000       -0.1110790000
 C       -0.4264950000        1.8614170000       -0.1693620000
 O       -1.3955580000       -2.0794120000       -0.3688970000
 O       -3.2670140000       -0.2096940000        0.4369370000
 H       -2.5288220000        2.3291920000       -0.1909230000
 H       -0.1406390000        2.9122490000       -0.2787050000

