%nproc=8
%mem=18000mb
#P PBE1PBE DEF2TZVPP OPT FREQ SCF(tight) INT(ultrafine)

 14-nq-6-ch2br_n_gn

 0 1
 C        0.5269900000       -1.5586640000        0.6073660000
 C        0.9702610000       -0.2340670000        0.7457070000
 C       -0.7953150000       -1.8362990000        0.2859490000
 C       -1.7027460000       -0.7919890000        0.0944480000
 C        0.0602880000        0.8071140000        0.5503340000
 C       -1.2694320000        0.5369900000        0.2290020000
 C       -3.1185200000       -1.1012200000       -0.2488580000
 C       -4.0293670000        0.0525090000       -0.4419950000
 C       -3.6161920000        1.3237350000       -0.3120270000
 C       -2.2178910000        1.6708010000        0.0360450000
 H        1.2351000000       -2.3792400000        0.7512900000
 H       -1.1553370000       -2.8616970000        0.1776860000
 H        0.3638490000        1.8529600000        0.6444510000
 H       -5.0613990000       -0.2030510000       -0.6967310000
 H       -4.2886400000        2.1740970000       -0.4532670000
 O       -3.5210440000       -2.2407790000       -0.3682470000
 O       -1.8735580000        2.8288990000        0.1571800000
 C        2.3943740000        0.0573810000        1.0868150000
Br        3.5288340000        0.0805250000       -0.5092420000
 H        2.8269270000       -0.7082130000        1.7422090000
 H        2.5124290000        1.0440400000        1.5496650000

