%nproc=8
%mem=18000mb
#P PBE1PBE DEF2TZVPP OPT FREQ SCF(tight) INT(ultrafine)

 14-nq-6-ch2br_n_rd

-1 2
 C        0.5206730000       -1.4822570000        0.5934800000
 C        0.9317260000       -0.1296620000        0.6932710000
 C       -0.7906560000       -1.7912020000        0.2960470000
 C       -1.7505460000       -0.7802540000        0.0873200000
 C       -0.0066780000        0.8726710000        0.4769040000
 C       -1.3468760000        0.5774470000        0.1821820000
 C       -3.1407560000       -1.1541700000       -0.2174880000
 C       -4.0371990000       -0.0402780000       -0.4077700000
 C       -3.6483090000        1.2773640000       -0.3141670000
 C       -2.2988440000        1.6876420000       -0.0143420000
 H        1.2550300000       -2.2790480000        0.7504540000
 H       -1.1408750000       -2.8236080000        0.2150840000
 H        0.2581830000        1.9328310000        0.5389980000
 H       -5.0756600000       -0.3024050000       -0.6363150000
 H       -4.3691560000        2.0875690000       -0.4655710000
 O       -3.5020390000       -2.3478440000       -0.3003390000
 O       -1.9471120000        2.8816390000        0.0772090000
 C        2.3278560000        0.2132940000        1.0489920000
Br        3.6261080000        0.0228780000       -0.4666540000
 H        2.7536570000       -0.4495640000        1.8124500000
 H        2.4359300000        1.2595730000        1.3562580000

