%nproc=8
%mem=18000mb
#P PBE1PBE DEF2TZVPP OPT FREQ SCF(tight) INT(ultrafine)

 14-nq-6-ch2br_n_ox

 1 2
 C        0.4571180000       -1.7115020000        0.5666960000
 C        0.9836750000       -0.4281100000        0.7488140000
 C       -0.8904170000       -1.8999710000        0.2290930000
 C       -1.7183170000       -0.7923870000        0.0522170000
 C        0.1446750000        0.6779020000        0.5776690000
 C       -1.2063580000        0.4879490000        0.2504770000
 C       -3.1570960000       -1.0019860000       -0.3019300000
 C       -4.0229870000        0.2155370000       -0.3266740000
 C       -3.5364380000        1.4455290000       -0.1457670000
 C       -2.0886950000        1.6863210000        0.1099370000
 H        1.1050410000       -2.5861940000        0.6701470000
 H       -1.3103820000       -2.9014400000        0.1041960000
 H        0.5066850000        1.6988910000        0.7289740000
 H       -5.0813960000        0.0285020000       -0.5286320000
 H       -4.1565190000        2.3436440000       -0.2051630000
 O       -3.5962780000       -2.0925120000       -0.5590980000
 O       -1.6282600000        2.8017090000        0.1466680000
 C        2.4268770000       -0.2376220000        1.0923740000
Br        3.4547150000        0.1602340000       -0.5111260000
 H        2.8816600000       -1.1318650000        1.5368300000
 H        2.5839660000        0.6167470000        1.7650660000

