%nproc=8
%mem=18000mb
#P PBE1PBE DEF2TZVPP OPT FREQ SCF(tight) INT(ultrafine)

 7i_n_gn

 0 1
 C       -4.6255650000        0.2842960000       -0.5865110000
 C       -3.6089550000        1.1629670000       -0.2171890000
 C       -2.3488940000        0.6805810000        0.1524890000
 C       -2.1189290000       -0.7058040000        0.1292260000
 C       -4.3875370000       -1.0869030000       -0.6277410000
 C       -3.1269800000       -1.5753160000       -0.2816530000
 N       -1.3291480000        1.5495470000        0.5248200000
 C        0.0179270000        1.2771210000        0.3080660000
 C        0.4985610000       -0.0249690000        0.3045690000
 S       -0.5923680000       -1.3520260000        0.7501080000
 C        0.9120800000        2.3523290000        0.0741040000
 C        2.2484600000        2.1252280000       -0.1362920000
 C        2.7662170000        0.8067340000       -0.1653290000
 C        1.8725310000       -0.2926600000        0.0437350000
 C        4.1409460000        0.5473240000       -0.3957690000
 C        2.4029060000       -1.6098070000       -0.0020090000
 C        4.6245600000       -0.7396170000       -0.4273380000
 C        3.7417670000       -1.8259340000       -0.2331740000
 H       -5.6067080000        0.6818300000       -0.8561410000
 H       -3.7916390000        2.2414510000       -0.2076800000
 H       -5.1768800000       -1.7790380000       -0.9278080000
 H       -2.9213100000       -2.6481880000       -0.3101230000
 H        0.5200510000        3.3735280000        0.0745380000
 H        2.9276380000        2.9662170000       -0.2961960000
 H        4.8126800000        1.3960230000       -0.5511240000
 H        5.6861370000       -0.9251860000       -0.6064090000
 H        1.7266760000       -2.4564460000        0.1362780000
 H        4.1255040000       -2.8484350000       -0.2709300000
 H       -1.5747980000        2.5304170000        0.5050110000

