%nproc=8
%mem=18000mb
#P PBE1PBE DEF2TZVPP OPT FREQ SCF(tight) INT(ultrafine)

 7i_n_ox

 1 2
 C        4.7513710000        0.3174750000        0.0000000000
 C        3.6797970000        1.1912970000        0.0000000000
 C        2.3644740000        0.6951890000        0.0000000000
 C        2.1521560000       -0.7001760000       -0.0000000000
 C        4.5376800000       -1.0699230000        0.0000000000
 C        3.2478000000       -1.5749910000       -0.0000000000
 N        1.3063030000        1.5708930000       -0.0000000000
 C       -0.0258790000        1.2817700000        0.0000000000
 C       -0.5042870000       -0.0467680000       -0.0000000000
 S        0.5648230000       -1.4095560000       -0.0000000000
 C       -0.9468200000        2.3641560000        0.0000000000
 C       -2.2907060000        2.1265200000        0.0000000000
 C       -2.8142980000        0.8002370000        0.0000000000
 C       -1.9141670000       -0.3081510000        0.0000000000
 C       -4.2041370000        0.5640030000        0.0000000000
 C       -2.4497430000       -1.6173760000        0.0000000000
 C       -4.7000920000       -0.7254830000        0.0000000000
 C       -3.8155200000       -1.8192010000        0.0000000000
 H        5.7689540000        0.7131950000        0.0000000000
 H        3.8458320000        2.2717780000        0.0000000000
 H        5.3871930000       -1.7554460000        0.0000000000
 H        3.0761340000       -2.6541550000       -0.0000000000
 H       -0.5622850000        3.3870230000        0.0000000000
 H       -2.9887050000        2.9669740000        0.0000000000
 H       -4.8851510000        1.4183080000        0.0000000000
 H       -5.7784290000       -0.8976890000        0.0000000000
 H       -1.7862460000       -2.4856950000        0.0000000000
 H       -4.2103720000       -2.8373290000        0.0000000000
 H        1.5460150000        2.5582130000       -0.0000000000

