%nproc=8
%mem=18000mb
#P PBE1PBE DEF2TZVPP OPT FREQ SCF(tight) INT(ultrafine)

 7h_n_gn

 0 1
 C        3.9459590000       -1.8319810000       -0.3886890000
 C        4.5161270000       -0.5784160000       -0.5928580000
 C        2.6135670000       -1.9413270000        0.0054710000
 C        1.8426760000       -0.7978910000        0.2393440000
 C        2.4285740000        0.4655400000        0.0511720000
 C        3.7477350000        0.5678450000       -0.3847650000
 H        4.5344000000       -2.7382060000       -0.5493700000
 H        2.1601240000       -2.9275890000        0.1406200000
 H        5.5559180000       -0.4867500000       -0.9132570000
 H        4.1785990000        1.5597610000       -0.5418010000
 N        0.5144000000       -0.9019540000        0.6437840000
 C       -0.4626280000        0.0257830000        0.3021830000
 C       -0.1238410000        1.3621250000        0.1362770000
 S        1.5193520000        1.9186660000        0.4914970000
 C       -1.8205700000       -0.3862970000        0.1064050000
 C       -2.8055960000        0.6036310000       -0.2119060000
 C       -2.4128090000        1.9543110000       -0.3798830000
 C       -1.0967170000        2.3169000000       -0.2278770000
 H       -0.7850460000        3.3546590000       -0.3686160000
 H       -3.1670130000        2.7009960000       -0.6380760000
 H        0.1921580000       -1.8451820000        0.8022470000
 C       -2.2415600000       -1.7376420000        0.2247960000
 C       -4.1573290000        0.2017380000       -0.3690530000
 C       -3.5609750000       -2.0937380000        0.0641300000
 C       -4.5333270000       -1.1131700000       -0.2310260000
 H       -4.9008360000        0.9669860000       -0.6072640000
 H       -5.5792160000       -1.4033010000       -0.3551930000
 H       -1.5194260000       -2.5294760000        0.4383090000
 H       -3.8558060000       -3.1413470000        0.1596380000

