%nproc=8
%mem=18000mb
#P PBE1PBE DEF2TZVPP OPT FREQ SCF(tight) INT(ultrafine)

 11-bis-2-aminoethyl-3l_2c_rd

 1 2
 N       -3.5492960000       -0.4237610000       -0.2853990000
 C       -2.8546130000        0.6354140000       -0.7935420000
 C       -2.8518480000       -1.4715180000        0.2424260000
 C       -1.4884340000        0.6609850000       -0.7982420000
 C       -0.7145410000       -0.4151180000       -0.2648560000
 C       -1.4874990000       -1.4949750000        0.2640310000
 C        0.7144780000       -0.4151150000       -0.2648640000
 C        1.4883610000        0.6609870000       -0.7982690000
 C        2.8545400000        0.6354230000       -0.7935840000
 N        3.5492350000       -0.4237430000       -0.2854370000
 C        2.8517960000       -1.4715030000        0.2423940000
 C        1.4874470000       -1.4949660000        0.2640160000
 H        3.4487780000       -2.2943220000        0.6386700000
 H        1.0138390000       -2.3755890000        0.6961860000
 H        1.0130690000        1.5412180000       -1.2290540000
 H        3.4580730000        1.4608690000       -1.1668350000
 H       -3.4488220000       -2.2943400000        0.6387080000
 H       -1.0138820000       -2.3755980000        0.6961910000
 H       -3.4581600000        1.4608660000       -1.1667660000
 H       -1.0131520000        1.5412260000       -1.2290180000
 C       -5.0078450000       -0.4063190000       -0.2456880000
 C       -5.5671450000        0.4781600000        0.8672290000
 H       -5.3515720000       -1.4424020000       -0.1192310000
 H       -5.3745110000       -0.0618010000       -1.2254230000
 N       -5.2550390000        1.8701580000        0.6367050000
 H       -5.1165950000        0.1596500000        1.8211010000
 H       -6.6493330000        0.2543620000        0.9492960000
 C        5.0077870000       -0.4063120000       -0.2457410000
 C        5.5671290000        0.4780430000        0.8672600000
 H        5.3744630000       -0.0617370000       -1.2254530000
 H        5.3514830000       -1.4424140000       -0.1193610000
 N        5.2553980000        1.8701210000        0.6367070000
 H        5.1163790000        0.1596320000        1.8210710000
 H        6.6492540000        0.2539960000        0.9494740000
 H       -5.9523950000        2.3159780000        0.0442230000
 H       -5.2234510000        2.3980660000        1.5042200000
 H        5.2238240000        2.3980270000        1.5042240000
 H        5.9529490000        2.3157730000        0.0443280000

