%nproc=8
%mem=18000mb
#P PBE1PBE DEF2TZVPP OPT FREQ SCF(tight) INT(ultrafine)

 3k_2c_gn

 2 1
 C        3.8865030000       -0.4276720000       -0.1447020000
 C        3.1158290000       -1.5595840000       -0.3879340000
 C        3.2477180000        0.7621920000        0.1604660000
 N        1.9017870000        0.8526660000        0.2118860000
 C        1.7243940000       -1.4566580000       -0.3284910000
 C        1.1246130000       -0.2382870000       -0.0376310000
 C       -0.3639820000       -0.1300340000       -0.0118980000
 C       -1.0983500000       -0.8103380000        0.9656780000
 C       -1.0698100000        0.5678460000       -1.0027380000
 C       -2.4532020000        0.5673910000       -0.9841140000
 C       -2.4846380000       -0.7692950000        0.9352480000
 N       -3.1370900000       -0.0911340000       -0.0257940000
 C       -4.6119470000       -0.0717370000       -0.0573840000
 H       -5.0002010000       -0.5863500000        0.8279650000
 H       -4.9597130000       -0.5854080000       -0.9644150000
 H       -4.9599520000        0.9697040000       -0.0589720000
 H       -3.0462470000        1.0856780000       -1.7416790000
 H       -0.5620980000        1.0939860000       -1.8140560000
 H       -0.6092280000       -1.3758130000        1.7621400000
 H       -3.0959400000       -1.2826900000        1.6808070000
 H        4.9778620000       -0.4543820000       -0.1776130000
 H        3.8020640000        1.6769830000        0.3807630000
 H        3.5873830000       -2.5176290000       -0.6227700000
 H        1.0940450000       -2.3262160000       -0.5259260000
 C        1.3041340000        2.1536660000        0.5594990000
 H        2.0641810000        2.7718070000        1.0500790000
 H        0.4681510000        2.0070700000        1.2533310000
 H        0.9592420000        2.6675890000       -0.3482920000

