%nproc=8
%mem=18000mb
#P PBE1PBE DEF2TZVPP OPT FREQ SCF(tight) INT(ultrafine)

 3k_2c_rd

 1 2
 C        3.8821310000       -0.4619450000       -0.2384320000
 C        3.0735340000       -1.6200500000       -0.2783130000
 C        3.2764700000        0.7421310000       -0.0164380000
 N        1.9280830000        0.8690560000        0.1483750000
 C        1.7128490000       -1.4912840000       -0.1413440000
 C        1.0880240000       -0.2301200000        0.0257930000
 C       -0.3437010000       -0.1203920000        0.0247820000
 C       -1.1502690000       -1.2069700000        0.4920510000
 C       -1.0823210000        0.9828800000       -0.5093070000
 C       -2.4475510000        0.9698820000       -0.5502430000
 C       -2.5124390000       -1.1575130000        0.4439430000
 N       -3.1779810000       -0.0809970000       -0.0747390000
 C       -4.6314140000       -0.0357440000       -0.0562440000
 H       -5.0374870000       -1.0333990000       -0.2679940000
 H       -4.9871980000        0.6556200000       -0.8298900000
 H       -5.0013910000        0.3031620000        0.9242050000
 H       -3.0166150000        1.7919040000       -0.9869970000
 H       -0.5852690000        1.8371610000       -0.9647160000
 H       -0.6947750000       -2.0888320000        0.9433850000
 H       -3.1337100000       -1.9685850000        0.8265700000
 H        4.9639510000       -0.5069530000       -0.3648870000
 H        3.8465870000        1.6690970000        0.0635080000
 H        3.5189440000       -2.6028580000       -0.4441510000
 H        1.0756660000       -2.3704810000       -0.2354060000
 C        1.4401290000        2.1736500000        0.5852340000
 H        2.2285930000        2.6685010000        1.1649830000
 H        0.5642500000        2.0429430000        1.2317130000
 H        1.1750850000        2.8191630000       -0.2646670000

