%nproc=8
%mem=18000mb
#P PBE1PBE DEF2TZVPP OPT FREQ SCF(tight) INT(ultrafine)

 3k_2c_ox

 3 2
 C       -3.8651130000       -0.5031690000       -0.2687600000
 C       -3.0744140000       -1.6439260000       -0.3693780000
 C       -3.2484300000        0.7441850000        0.0564770000
 N       -1.9235120000        0.8857010000        0.1974760000
 C       -1.7034120000       -1.4969350000       -0.1800770000
 C       -1.1004210000       -0.2103450000        0.0398170000
 C        0.3591520000       -0.1146400000        0.0195790000
 C        1.1269130000       -1.1553420000        0.6109550000
 C        1.0706230000        0.9321510000       -0.6229810000
 C        2.4512640000        0.9034190000       -0.6525770000
 C        2.5162300000       -1.0965340000        0.5820680000
 N        3.1519260000       -0.0901930000       -0.0454100000
 C        4.6223180000       -0.0564400000       -0.0979370000
 H        5.0354190000       -0.9005860000        0.4656140000
 H        4.9741650000        0.8978210000        0.3312430000
 H        4.9432300000       -0.1081350000       -1.1534030000
 H        3.0351550000        1.6734520000       -1.1677950000
 H        0.5737180000        1.7405650000       -1.1623230000
 H        0.6707020000       -1.9919960000        1.1478720000
 H        3.1341170000       -1.8658970000        1.0560520000
 H       -4.9559240000       -0.5307120000       -0.3916060000
 H       -3.8621980000        1.6386180000        0.2252780000
 H       -3.5126160000       -2.6263050000       -0.5816280000
 H       -1.0522190000       -2.3727300000       -0.2621150000
 C       -1.4251050000        2.2304660000        0.5998160000
 H       -2.1878300000        2.7021020000        1.2336340000
 H       -1.2665360000        2.8525020000       -0.2933880000
 H       -0.5057130000        2.1254090000        1.1860970000

