%nproc=8
%mem=18000mb
#P PBE1PBE DEF2TZVPP OPT FREQ SCF(tight) INT(ultrafine)

 49-dimethyl-3c_2c_ox

 3 2
 C       -3.4947470000        0.7046090000       -0.1930580000
 C       -2.8237470000        1.8995440000       -0.3924970000
 C       -1.4325840000        1.9050250000       -0.2946350000
 C       -2.7845240000       -0.5080390000        0.0921270000
 N       -1.4282250000       -0.4701280000        0.1138410000
 C       -0.7248580000        0.7035780000       -0.0426180000
 C        0.7248580000        0.7035770000        0.0426250000
 N        1.4282240000       -0.4701290000       -0.1138360000
 C       -0.6410300000       -1.6877630000        0.3969030000
 C        0.6410290000       -1.6877690000       -0.3968820000
 H       -1.2225720000       -2.5707120000        0.1061500000
 H       -0.4615050000       -1.7417760000        1.4849470000
 H        0.4615040000       -1.7417980000       -1.4849250000
 H        1.2225710000       -2.5707130000       -0.1061140000
 C        1.4325860000        1.9050230000        0.2946410000
 C        2.8237490000        1.8995420000        0.3924940000
 C        3.4947490000        0.7046080000        0.1930450000
 C        2.7845230000       -0.5080400000       -0.0921360000
 H       -4.5882380000        0.6587730000       -0.2393120000
 H        4.5882400000        0.6587720000        0.2392880000
 H       -0.8927630000        2.8399700000       -0.4562070000
 H        0.8927660000        2.8399680000        0.4562200000
 H        3.3704450000        2.8228330000        0.6131890000
 H       -3.3704410000        2.8228360000       -0.6131910000
 C        3.5243090000       -1.7542950000       -0.3564000000
 H        3.1581280000       -2.2932260000       -1.2471590000
 H        3.4362900000       -2.4522630000        0.5045910000
 H        4.5952410000       -1.5486060000       -0.4848330000
 C       -3.5243120000       -1.7542950000        0.3563840000
 H       -4.5952500000       -1.5486120000        0.4847710000
 H       -3.1581610000       -2.2932010000        1.2471720000
 H       -3.4362490000       -2.4522840000       -0.5045850000

