%nproc=8
%mem=18000mb
#P PBE1PBE DEF2TZVPP OPT FREQ SCF(tight) INT(ultrafine)

 22-bipyridine_2c_gn

 2 1
 C        0.5826060000        2.8734100000        1.0372950000
 C       -0.0151370000        3.5238890000       -0.0400210000
 C        0.5976060000        1.4727600000        1.0905920000
 C        0.0155810000        0.7428780000        0.0654840000
 C       -0.5976060000        2.7602850000       -1.0409070000
 N       -0.5644220000        1.4184520000       -0.9615320000
 C       -0.0155810000       -0.7428780000        0.0654840000
 C       -0.5976060000       -1.4727600000        1.0905920000
 C       -0.5826060000       -2.8734100000        1.0372950000
 C        0.0151370000       -3.5238890000       -0.0400210000
 N        0.5644220000       -1.4184520000       -0.9615320000
 C        0.5976060000       -2.7602850000       -1.0409070000
 H        1.0458340000        3.4514660000        1.8424400000
 H        1.0781880000        0.9519780000        1.9219060000
 H       -0.0422900000        4.6140070000       -0.1092450000
 H       -1.1051440000        3.1907800000       -1.9084450000
 H       -1.0781880000       -0.9519780000        1.9219060000
 H       -1.0458340000       -3.4514660000        1.8424400000
 H        1.1051440000       -3.1907800000       -1.9084450000
 H        0.0422900000       -4.6140070000       -0.1092450000
 H       -1.0529960000        0.8951980000       -1.6905990000
 H        1.0529960000       -0.8951980000       -1.6905990000

