%nproc=8
%mem=18000mb
#P PBE1PBE DEF2TZVPP OPT FREQ SCF(tight) INT(ultrafine)

 3-methyl-7a_n_ox

 1 2
 C       -4.0853080000        0.8007550000        0.0000020000
 C       -4.1196160000       -0.6045850000        0.0000010000
 C       -2.8781590000        1.4705820000        0.0000020000
 C       -1.6675830000        0.7507040000        0.0000010000
 C       -1.7048840000       -0.6653870000       -0.0000000000
 C       -2.9409400000       -1.3298070000       -0.0000000000
 H       -5.0172970000        1.3692680000        0.0000040000
 H       -2.8507490000        2.5632540000        0.0000030000
 H       -5.0771140000       -1.1287140000        0.0000010000
 H       -2.9644860000       -2.4221500000       -0.0000010000
 N       -0.4791030000        1.4319720000        0.0000010000
 C        0.7854480000        0.9134800000       -0.0000000000
 C        1.0162820000       -0.4846950000       -0.0000020000
 S       -0.2721890000       -1.6459870000       -0.0000030000
 C        1.8960690000        1.7814450000       -0.0000010000
 C        3.1757940000        1.2740050000       -0.0000030000
 C        3.4230030000       -0.1214100000       -0.0000030000
 C        2.3283810000       -0.9783360000       -0.0000030000
 H        1.7310520000        2.8619790000       -0.0000010000
 H        4.0218050000        1.9655100000       -0.0000040000
 H        2.4878770000       -2.0596720000       -0.0000060000
 H       -0.5463210000        2.4461240000        0.0000020000
 C        4.8247090000       -0.6390100000        0.0000060000
 H        5.3730110000       -0.2772320000        0.8843230000
 H        5.3730890000       -0.2770680000       -0.8841950000
 H        4.8586950000       -1.7357530000       -0.0000910000

