%nproc=8
%mem=18000mb
#P PBE1PBE DEF2TZVPP OPT FREQ SCF(tight) INT(ultrafine)

 10-benzoylpheno-7b_n_rd

-1 2
 C       -1.0744550000        3.5450360000       -1.0020880000
 C       -2.1855900000        3.6713570000       -0.1674520000
 C       -0.4074010000        2.3295180000       -1.1249600000
 C       -0.8170030000        1.2089990000       -0.3813840000
 C       -1.9357210000        1.3484890000        0.4652160000
 C       -2.6213880000        2.5599690000        0.5528820000
 H       -0.7261240000        4.4031830000       -1.5836100000
 H        0.4316390000        2.2045160000       -1.8113400000
 H       -2.7132420000        4.6243060000       -0.0783820000
 H       -3.4908100000        2.6278890000        1.2127900000
 N       -0.1348650000        0.0000270000       -0.4772000000
 C       -0.8167920000       -1.2090580000       -0.3813500000
 C       -1.9354880000       -1.3487230000        0.4652490000
 S       -2.3858210000       -0.0001430000        1.5196090000
 C       -0.4069950000       -2.3295200000       -1.1249030000
 C       -1.0738360000       -3.5451530000       -1.0020050000
 C       -2.1849480000       -3.6716500000       -0.1673630000
 C       -2.6209430000       -2.5603210000        0.5529420000
 H        0.4320260000       -2.2043880000       -1.8112830000
 H       -0.7253550000       -4.4032520000       -1.5835080000
 H       -3.4903540000       -2.6283770000        1.2128500000
 H       -2.7124320000       -4.6246890000       -0.0782730000
 C        1.1983060000        0.0001330000       -1.1076760000
 C        2.2936810000        0.0001930000       -0.1913830000
 C        3.6247820000        0.0001120000       -0.7160200000
 C        2.1648290000        0.0003050000        1.2319010000
 C        3.2803130000        0.0003410000        2.0515380000
 C        4.5820330000        0.0002640000        1.5182430000
 C        4.7270180000        0.0001480000        0.1191930000
 H        5.7312640000        0.0000900000       -0.3199320000
 H        3.7333320000        0.0000250000       -1.8030750000
 H        1.1642820000        0.0003710000        1.6719570000
 H        3.1407120000        0.0004340000        3.1381560000
 H        5.4569180000        0.0002940000        2.1738990000
 O        1.2678630000       -0.0001170000       -2.3571340000

