%nproc=8
%mem=18000mb
#P PBE1PBE DEF2TZVPP OPT FREQ SCF(tight) INT(ultrafine)

 10-benzoylpheno-7b_n_gn

 0 1
 C       -1.2194460000        2.5257710000        1.8398920000
 C       -0.6405930000        3.5330900000        1.0680830000
 C       -0.8786970000        1.1936720000        1.6225300000
 C        0.0116990000        0.8541390000        0.6006980000
 C        0.6139340000        1.8714980000       -0.1525350000
 C        0.2916700000        3.2085420000        0.0857380000
 H       -1.9328730000        2.7779670000        2.6274160000
 H       -1.3177590000        0.4029320000        2.2337620000
 H       -0.8991980000        4.5794720000        1.2450360000
 H        0.7781100000        3.9899090000       -0.5027070000
 N        0.3522920000       -0.4972540000        0.3322990000
 C        1.7405630000       -0.7926430000        0.2125570000
 C        2.5167340000        0.0514670000       -0.5980770000
 S        1.7503920000        1.4172740000       -1.4257460000
 C        2.3514120000       -1.8692430000        0.8613220000
 C        3.7075760000       -2.1209010000        0.6623140000
 C        4.4711740000       -1.2913550000       -0.1561600000
 C        3.8786940000       -0.1934750000       -0.7746710000
 H        1.7487990000       -2.5211250000        1.4898230000
 H        4.1702210000       -2.9757430000        1.1607120000
 H        4.4681790000        0.4829930000       -1.3978100000
 H        5.5353290000       -1.4885090000       -0.3043530000
 C       -0.6047410000       -1.5138160000        0.2782020000
 C       -1.9944460000       -1.1247180000       -0.1256050000
 C       -3.0573750000       -1.8522640000        0.4207030000
 C       -2.2483680000       -0.1666030000       -1.1141730000
 C       -3.5545590000        0.0738270000       -1.5320090000
 C       -4.6142670000       -0.6297120000       -0.9593380000
 C       -4.3640670000       -1.5944970000        0.0169600000
 H       -5.1914320000       -2.1560370000        0.4575020000
 H       -2.8387390000       -2.6268570000        1.1590770000
 H       -1.4181300000        0.3756000000       -1.5724610000
 H       -3.7460970000        0.8138880000       -2.3126060000
 H       -5.6392580000       -0.4323670000       -1.2832290000
 O       -0.3288580000       -2.6743010000        0.4933860000

