%nproc=8
%mem=18000mb
#P PBE1PBE DEF2TZVPP OPT(calcall) FREQ SCF(tight) INT(ultrafine)

 p-chloroaniline_n_rd

-1 2
 C        0.0012800000       -0.0956300000       -0.2386900000
 C        0.1171800000        1.1046400000        0.4568100000
 C        0.1738600000        1.1231100000        1.8599800000
 C        0.1089400000       -0.0999400000        2.5471400000
 C       -0.0074000000       -1.3031400000        1.8566700000
 H       -0.0541700000       -2.2420800000        2.3980600000
 C       -0.0612700000       -1.2960700000        0.4649300000
 H       -0.0389800000       -0.0979000000       -1.3227900000
 H        0.1468900000       -0.1104800000        3.6340900000
 H        0.1611300000        2.0397600000       -0.0969000000
Cl       -0.2054600000       -2.8163500000       -0.4117300000
 N        0.2161300000        2.3373900000        2.5594800000
 H        0.6144800000        2.2714600000        3.4897400000
 H        0.6281900000        3.1056900000        2.0414700000

