%nproc=8
%mem=18000mb
#P PBE1PBE DEF2TZVPP OPT FREQ SCF(tight) INT(ultrafine)

 i47di-2-met-3-phenyl_n_rd

-1 2
 C       -3.5888230000       -1.2059560000        0.1648120000
 C       -2.5299330000       -2.1010380000        0.1879800000
 C       -3.4139700000        0.2167270000        0.0498180000
 H       -4.6218280000       -1.5642100000        0.2300470000
 C       -1.1335770000       -1.7523230000        0.1007820000
 H       -2.7217740000       -3.1767710000        0.2657930000
 C       -0.8961090000       -0.3058340000       -0.0029970000
 C       -2.0013910000        0.6062350000       -0.0261660000
 C       -1.4799230000        1.8799360000       -0.1220140000
 N       -0.1194330000        1.8004190000       -0.1367780000
 C        0.2813400000        0.4684780000       -0.0538800000
 H       -1.9989810000        2.8328160000       -0.2043770000
 C        0.7097360000        2.9518900000       -0.3812400000
 H        1.6007330000        2.6694640000       -0.9576080000
 H        1.0444910000        3.4418060000        0.5493590000
 H        0.1349950000        3.6853760000       -0.9648570000
 C        1.6920750000        0.0873580000        0.0001440000
 C        2.1422270000       -1.1035340000       -0.6091020000
 C        2.6559790000        0.8723170000        0.6686480000
 C        4.0039410000        0.5188020000        0.6826160000
 C        3.4864300000       -1.4552290000       -0.5842630000
 C        4.4339540000       -0.6437790000        0.0462200000
 H        1.3991200000       -1.7719180000       -1.0455330000
 H        3.8002440000       -2.3867910000       -1.0644740000
 H        5.4905600000       -0.9257140000        0.0576040000
 H        4.7205200000        1.1519060000        1.2148370000
 H        2.3415310000        1.7570600000        1.2249430000
 O       -4.3391530000        1.0546950000        0.0204980000
 O       -0.2265110000       -2.6197280000        0.0949480000

