%nproc=8
%mem=18000mb
#P PBE1PBE DEF2TZVPP OPT FREQ SCF(tight) INT(ultrafine)

 11-dimethyl-3l_2c_rd

 1 2
 N        3.5487940000       -0.0000200000       -0.0251280000
 C        2.8527500000       -1.1729360000       -0.0178330000
 C        1.4875930000       -1.2019190000       -0.0096870000
 C        2.8527610000        1.1729080000       -0.0178400000
 C        1.4876070000        1.2019050000       -0.0096930000
 C        0.7145930000       -0.0000030000       -0.0040520000
 C       -0.7145930000        0.0000090000        0.0040490000
 C       -1.4876070000       -1.2019000000        0.0096920000
 C       -1.4875930000        1.2019240000        0.0096840000
 C       -2.8527510000        1.1729410000        0.0178300000
 C       -2.8527600000       -1.1729030000        0.0178410000
 N       -3.5487930000        0.0000260000        0.0251280000
 H       -3.4499790000        2.0859970000        0.0217870000
 H       -1.0142990000        2.1830160000        0.0113000000
 H       -1.0143190000       -2.1829960000        0.0113120000
 H       -3.4500050000       -2.0859500000        0.0218050000
 H        1.0143200000        2.1830010000       -0.0113140000
 H        3.4500050000        2.0859550000       -0.0218040000
 H        3.4499790000       -2.0859920000       -0.0217920000
 H        1.0142980000       -2.1830110000       -0.0113050000
 C        5.0028640000        0.0000160000        0.0340630000
 H        5.3929190000       -0.8907320000       -0.4739640000
 H        5.3517810000        0.0007030000        1.0785060000
 H        5.3929480000        0.8900740000       -0.4751610000
 C       -5.0028640000       -0.0000380000       -0.0340570000
 H       -5.3929100000        0.8909300000        0.4735850000
 H       -5.3929520000       -0.8898750000        0.4755550000
 H       -5.3517860000       -0.0011720000       -1.0784980000

