%nproc=8
%mem=18000mb
#P PBE1PBE DEF2TZVPP OPT FREQ SCF(tight) INT(ultrafine)

 11-dimethyl-3l_2c_ox

 3 2
 N       -3.5328220000       -0.0155970000       -0.0028020000
 C       -2.8687250000       -1.1822340000       -0.1185870000
 C       -1.4798490000       -1.2122020000       -0.1128010000
 C       -2.8583660000        1.1677890000        0.1170600000
 C       -1.4830940000        1.2097590000        0.1161000000
 C       -0.7264410000        0.0039990000        0.0038660000
 C        0.7264410000       -0.0039990000        0.0038660000
 C        1.4830940000       -1.2097600000        0.1160930000
 C        1.4798490000        1.2122030000       -0.1127950000
 C        2.8687250000        1.1822350000       -0.1185800000
 C        2.8583660000       -1.1677890000        0.1170540000
 N        3.5328210000        0.0155970000       -0.0028020000
 H        3.4656500000        2.0945800000       -0.2156620000
 H        1.0049120000        2.1892480000       -0.2249720000
 H        1.0172780000       -2.1903710000        0.2301510000
 H        3.4692960000       -2.0714310000        0.2135610000
 H       -1.0172780000        2.1903700000        0.2301630000
 H       -3.4692960000        2.0714300000        0.2135710000
 H       -3.4656500000       -2.0945790000       -0.2156740000
 H       -1.0049120000       -2.1892460000       -0.2249840000
 C       -4.9958760000        0.0072090000       -0.0027860000
 H       -5.3931990000       -1.0078670000       -0.1141060000
 H       -5.3459290000        0.6533760000       -0.8307130000
 H       -5.3481790000        0.4597320000        0.9442700000
 C        4.9958760000       -0.0072090000       -0.0027900000
 H        5.3931990000        1.0078730000       -0.1140550000
 H        5.3459250000       -0.6533280000       -0.8307570000
 H        5.3481830000       -0.4597880000        0.9442370000

