%nproc=8
%mem=18000mb
#P PBE1PBE DEF2TZVPP OPT FREQ SCF(tight) INT(ultrafine)

 212-dimethyl-3d_2c_ox

 3 2
 C        3.4939630000       -0.1733510000       -0.2138800000
 C        2.8670730000       -1.3470480000        0.2515170000
 C        2.7285770000        0.9423400000       -0.6279060000
 N        1.3978040000        0.9601460000       -0.5530860000
 C        1.4599660000       -1.3055310000        0.2822200000
 C        0.7273310000       -0.1531100000       -0.0721060000
 C       -0.7272550000       -0.1532310000        0.0724330000
 N       -1.3979120000        0.9600290000        0.5532830000
 C       -1.4597700000       -1.3057070000       -0.2818720000
 C       -2.8669030000       -1.3472570000       -0.2515060000
 C       -3.4939220000       -0.1737320000        0.2140710000
 C       -2.7286340000        0.9420650000        0.6280880000
 C        0.6377010000        2.1195580000       -1.0966520000
 C       -0.0004090000        2.9593760000       -0.0002760000
 H       -0.1061750000        1.7046560000       -1.7944760000
 H        1.3312880000        2.7169530000       -1.7034480000
 C       -0.6379240000        2.1197170000        1.0964470000
 H       -0.7388090000        3.6210310000       -0.4813170000
 H        0.7375090000        3.6217120000        0.4805800000
 H       -1.3314440000        2.7170800000        1.7033600000
 H        0.1062620000        1.7051220000        1.7941340000
 H       -0.9166060000       -2.1764400000       -0.6591690000
 H       -4.5852560000       -0.1058650000        0.2980670000
 H       -3.2156400000        1.8259270000        1.0561060000
 H        0.9168430000       -2.1762890000        0.6595270000
 H        4.5853000000       -0.1053460000       -0.2977100000
 H        3.2153840000        1.8261660000       -1.0562130000
 C       -3.6439600000       -2.5309350000       -0.6782570000
 H       -3.0107670000       -3.3865040000       -0.9432950000
 H       -4.2764340000       -2.2749910000       -1.5493240000
 H       -4.3480710000       -2.8339870000        0.1181440000
 C        3.6443120000       -2.5307420000        0.6778000000
 H        4.3492140000       -2.8327970000       -0.1182610000
 H        3.0113010000       -3.3868440000        0.9415930000
 H        4.2759810000       -2.2752760000        1.5496050000

