%nproc=8
%mem=18000mb
#P PBE1PBE DEF2TZVPP OPT FREQ SCF(tight) INT(ultrafine)

 212-dimethyl-3d_2c_gn

 2 1
 C        3.4909800000       -0.1507590000       -0.3050370000
 C        2.8895840000       -1.2696620000        0.2906660000
 C        2.7164850000        0.9005800000       -0.7534740000
 N        1.3735430000        0.8912120000       -0.6337820000
 C        1.4855420000       -1.2444040000        0.4064450000
 C        0.7424600000       -0.1688170000       -0.0518090000
 C       -0.7424640000       -0.1688180000        0.0518100000
 N       -1.3735490000        0.8912120000        0.6337830000
 C       -1.4855450000       -1.2444020000       -0.4064480000
 C       -2.8895910000       -1.2696580000       -0.2906740000
 C       -3.4909860000       -0.1507550000        0.3050240000
 C       -2.7164900000        0.9005830000        0.7534680000
 C        0.5754330000        2.0280800000       -1.1336830000
 C       -0.0000020000        2.8696100000        0.0000020000
 H       -0.2184260000        1.6086810000       -1.7700480000
 H        1.2169160000        2.6317550000       -1.7877160000
 C       -0.5754390000        2.0280790000        1.1336860000
 H       -0.7682430000        3.5292780000       -0.4325620000
 H        0.7682400000        3.5292760000        0.4325670000
 H       -1.2169220000        2.6317550000        1.7877190000
 H        0.2184190000        1.6086790000        1.7700510000
 H       -0.9644840000       -2.0768590000       -0.8842170000
 H       -4.5752300000       -0.0911740000        0.4260240000
 H       -3.1544020000        1.7799770000        1.2311430000
 H        0.9644830000       -2.0768640000        0.8842110000
 H        4.5752240000       -0.0911820000       -0.4260470000
 H        3.1543950000        1.7799740000       -1.2311510000
 C       -3.6910350000       -2.4296540000       -0.7601690000
 H       -3.1389490000       -3.0587010000       -1.4700430000
 H       -4.6352270000       -2.1034250000       -1.2198370000
 H       -3.9631150000       -3.0591880000        0.1062340000
 C        3.6910500000       -2.4296370000        0.7601790000
 H        3.9638720000       -3.0587360000       -0.1063010000
 H        3.1387260000       -3.0591090000        1.4694860000
 H        4.6348690000       -2.1033020000        1.2205530000

