%nproc=8
%mem=18000mb
#P PBE1PBE DEF2TZVPP OPT FREQ SCF(tight) INT(ultrafine)

 10-carboxaldehyde-7b_n_ox

 1 2
 C        3.6235820000        0.7010350000       -0.5311330000
 C        3.8203910000       -0.6617290000       -0.2560340000
 C        2.3604820000        1.2672460000       -0.4576380000
 C        1.2488720000        0.4875720000       -0.0954390000
 C        1.4487640000       -0.8978030000        0.1243470000
 C        2.7376960000       -1.4593400000        0.0568890000
 H        4.4701440000        1.3240890000       -0.8275610000
 H        2.2301590000        2.3168690000       -0.7245120000
 H        4.8197120000       -1.0968870000       -0.3163150000
 H        2.8669360000       -2.5299120000        0.2342330000
 N       -0.0092650000        1.0802700000        0.0655090000
 C       -1.2054840000        0.3715290000       -0.1133980000
 C       -1.2427250000       -1.0370310000        0.0895470000
 S        0.1492830000       -1.9682590000        0.4900170000
 C       -2.4027860000        1.0209930000       -0.4563810000
 C       -3.5828520000        0.3002830000       -0.5586320000
 C       -3.6194990000       -1.0828700000       -0.3168270000
 C       -2.4540570000       -1.7491470000        0.0005010000
 H       -2.4046280000        2.0911190000       -0.6426650000
 H       -4.4976670000        0.8253440000       -0.8420400000
 H       -2.4548480000       -2.8294810000        0.1650940000
 H       -4.5591600000       -1.6327550000       -0.3970540000
 C       -0.0276000000        2.4121660000        0.6001910000
 O       -1.0003010000        3.0892010000        0.6979540000
 H        0.9793850000        2.7108370000        0.9523880000

