%nproc=8
%mem=18000mb
#P PBE1PBE DEF2TZVPP OPT FREQ SCF(tight) INT(ultrafine)

 10-carboxaldehyde-7b_n_rd

-1 2
 C       -3.4550960000        0.6672630000       -0.9379510000
 C       -3.7085360000       -0.6766890000       -0.6370740000
 C       -2.2328050000        1.2609230000       -0.6475840000
 C       -1.1991800000        0.5087630000       -0.0173340000
 C       -1.4584260000       -0.8527690000        0.2633530000
 C       -2.6681520000       -1.4473090000       -0.0590240000
 H       -4.2342450000        1.2719360000       -1.4146560000
 H       -2.0440800000        2.3039170000       -0.9113150000
 H       -4.6841690000       -1.1250730000       -0.8396120000
 H       -2.8015530000       -2.5155570000        0.1334910000
 N        0.0328520000        1.0926850000        0.3619350000
 C        1.1795250000        0.3486840000       -0.0117310000
 C        1.2067610000       -1.0427320000        0.2224340000
 S       -0.1703500000       -1.7815120000        1.0528460000
 C        2.3003140000        0.9471240000       -0.6319090000
 C        3.3985440000        0.1697620000       -0.9845990000
 C        3.4170840000       -1.2094540000       -0.7592370000
 C        2.2955090000       -1.8158340000       -0.1668730000
 H        2.3067200000        2.0284260000       -0.7590780000
 H        4.2656350000        0.6567540000       -1.4423250000
 H        2.2625360000       -2.8958190000       -0.0000400000
 H        4.2860710000       -1.8111800000       -1.0377240000
 C        0.0998580000        2.4003920000        0.7939470000
 O        1.1254920000        3.0746410000        0.9160380000
 H       -0.9175990000        2.7961240000        1.0053680000

