%nproc=8
%mem=18000mb
#P PBE1PBE DEF2TZVPP OPT FREQ SCF(tight) INT(ultrafine)

 110-dimethyl-3f_2c_ox

 3 2
 C        3.5410020000        0.1005220000        0.2543480000
 C        2.8151300000        1.2692020000        0.4379020000
 C        1.4065130000        1.2477460000        0.2593940000
 C        2.8648560000       -1.0128740000       -0.2194970000
 N        1.5101720000       -1.0481460000       -0.3816640000
 C        0.7399060000        0.0114840000       -0.0206750000
 C        0.6815160000        2.4608700000        0.1886110000
 C       -0.6814940000        2.4608790000       -0.1885720000
 C       -1.4064990000        1.2477600000       -0.2593810000
 C       -0.7399030000        0.0114950000        0.0206900000
 H        4.6267180000        0.0595050000        0.3911010000
 H        3.3998050000       -1.9201100000       -0.5236120000
 H        3.3193850000        2.2096500000        0.6904750000
 H        1.1983260000        3.4145810000        0.3516030000
 H       -1.1982980000        3.4145960000       -0.3515430000
 C       -2.8151130000        1.2692190000       -0.4379260000
 C       -3.5409890000        0.1005350000       -0.2544220000
 N       -1.5101840000       -1.0481340000        0.3816580000
 C       -2.8648580000       -1.0128660000        0.2194390000
 H       -3.3998190000       -1.9201020000        0.5235330000
 H       -4.6267000000        0.0595180000       -0.3912170000
 H       -3.3193600000        2.2096730000       -0.6904900000
 C        1.0021690000       -2.2259660000       -1.1282390000
 H        1.6060910000       -2.3197460000       -2.0437550000
 H       -0.0384230000       -2.0741310000       -1.4266440000
 H        1.1222130000       -3.1391690000       -0.5286090000
 C       -1.0022080000       -2.2259170000        1.1283130000
 H        0.0384080000       -2.0741180000        1.4266500000
 H       -1.1223390000       -3.1391660000        0.5287710000
 H       -1.6060880000       -2.3195720000        2.0438720000

