%nproc=8
%mem=18000mb
#P PBE1PBE DEF2TZVPP OPT FREQ SCF(tight) INT(ultrafine)

 110-dimethyl-3f_2c_gn

 2 1
 C        3.5054980000        0.0889700000        0.2695320000
 C        2.7923430000        1.2648580000        0.3730820000
 C        1.3901030000        1.2660950000        0.1875830000
 C        2.8293710000       -1.0470940000       -0.1645260000
 N        1.4995350000       -1.0720390000       -0.3389820000
 C        0.7228120000        0.0281540000       -0.0267920000
 C        0.6637630000        2.4963980000        0.1466390000
 C       -0.6637870000        2.4963940000       -0.1466420000
 C       -1.3901170000        1.2660860000       -0.1875920000
 C       -0.7228150000        0.0281490000        0.0267690000
 H        4.5860900000        0.0478880000        0.4205890000
 H        3.3657560000       -1.9575060000       -0.4459880000
 H        3.3030110000        2.2092300000        0.5823080000
 H        1.2094270000        3.4320550000        0.2883360000
 H       -1.2094580000        3.4320490000       -0.2883250000
 C       -2.7923600000        1.2648370000       -0.3730790000
 C       -3.5055040000        0.0889430000       -0.2695240000
 N       -1.4995260000       -1.0720470000        0.3389760000
 C       -2.8293640000       -1.0471140000        0.1645340000
 H       -3.3657390000       -1.9575290000        0.4460050000
 H       -4.5860970000        0.0478530000       -0.4205720000
 H       -3.3030380000        2.2092070000       -0.5822930000
 C        0.9817810000       -2.2194290000       -1.1175990000
 H        1.5738610000       -2.2956090000       -2.0392460000
 H       -0.0589250000       -2.0486350000       -1.4030180000
 H        1.0805390000       -3.1505990000       -0.5465050000
 C       -0.9817470000       -2.2194170000        1.1176080000
 H        0.0589800000       -2.0486320000        1.4029540000
 H       -1.0805590000       -3.1506070000        0.5465560000
 H       -1.5737720000       -2.2955480000        2.0392950000

