%nproc=8
%mem=18000mb
#P PBE1PBE DEF2TZVPP OPT FREQ SCF(tight) INT(ultrafine)

 4-chloro-7-methoxy-7a_n_gn

 0 1
 C       -3.4010490000        1.0651520000        0.0925960000
 C       -3.3862170000       -0.3301660000        0.1149880000
 C       -2.2068010000        1.7663070000       -0.0938650000
 C       -0.9952610000        1.1085860000       -0.2948410000
 C       -0.9922120000       -0.2979530000       -0.2819150000
 C       -2.1676650000       -1.0020940000       -0.0600080000
 H       -4.3264320000        1.6243690000        0.2300820000
 H       -2.2258460000        2.8600110000       -0.0910730000
 H       -2.1653630000       -2.0935820000       -0.0329190000
 N        0.1870060000        1.8200450000       -0.4986920000
 C        1.4451640000        1.3466580000       -0.1654020000
 C        1.7067250000       -0.0384990000       -0.1459330000
 S        0.4800710000       -1.2089630000       -0.6477360000
 C        2.4750510000        2.2420550000        0.1484700000
 C        3.7515100000        1.7797980000        0.4545140000
 C        4.0223760000        0.4168580000        0.4791290000
 C        2.9924890000       -0.4774100000        0.1841280000
 H        2.2659590000        3.3151470000        0.1419790000
 H        4.5445600000        2.4948830000        0.6838480000
 H        5.0145660000        0.0324410000        0.7168050000
 H        0.0906330000        2.8263290000       -0.4802640000
Cl        3.3302100000       -2.1763130000        0.1875610000
 O       -4.4726200000       -1.1113500000        0.2986930000
 C       -5.7159630000       -0.4988020000        0.4844640000
 H       -6.4496080000       -1.3050250000        0.6129610000
 H       -6.0095640000        0.1124940000       -0.3880240000
 H       -5.7305760000        0.1411860000        1.3852100000

