%nproc=8
%mem=18000mb
#P PBE1PBE DEF2TZVPP OPT FREQ SCF(tight) INT(ultrafine)

 4-chloro-7-methoxy-7a_n_ox

 1 2
 C       -2.0780000000        2.9333370000        0.0000000000
 C       -0.7257550000        3.3602160000        0.0000000000
 C       -2.3762410000        1.5888130000        0.0000000000
 C       -1.3570470000        0.6156320000        0.0000000000
 C       -0.0000000000        1.0458900000        0.0000000000
 C        0.2975740000        2.4018070000        0.0000000000
 H       -2.8911200000        3.6591850000        0.0000000000
 H       -3.4210980000        1.2671930000        0.0000000000
 H        1.3319910000        2.7519470000        0.0000000000
 N       -1.6871620000       -0.7073570000        0.0000000000
 C       -0.8421410000       -1.7881730000        0.0000000000
 C        0.5618450000       -1.6152310000        0.0000000000
 S        1.3446590000       -0.0611630000        0.0000000000
 C       -1.3909030000       -3.0840850000        0.0000000000
 C       -0.5591680000       -4.1867430000        0.0000000000
 C        0.8334470000       -4.0313620000        0.0000000000
 C        1.3846570000       -2.7583500000        0.0000000000
 H       -2.4767050000       -3.2073020000        0.0000000000
 H       -0.9885070000       -5.1904300000        0.0000000000
 H        1.4958270000       -4.8983820000        0.0000000000
 H       -2.6805230000       -0.9222850000        0.0000000000
Cl        3.0898970000       -2.5488360000        0.0000000000
 O       -0.3441220000        4.6236690000        0.0000000000
 C       -1.2952400000        5.6733330000        0.0000000000
 H       -0.7176780000        6.6042270000        0.0000000000
 H       -1.9250130000        5.6381570000        0.9030350000
 H       -1.9250130000        5.6381570000       -0.9030350000

