%nproc=8
%mem=18000mb
#P PBE1PBE DEF2TZVPP OPT FREQ SCF(tight) INT(ultrafine)

 adrenochrome_n_gn

 0 1
 C       -2.0897370000        0.7816460000        0.0192270000
 C       -2.0969230000       -0.7779830000        0.0022160000
 C       -0.8047690000        1.4536340000       -0.0170690000
 C        0.3357820000        0.7079210000       -0.1014360000
 C        0.3261650000       -0.7586490000       -0.1707460000
 C       -0.8007390000       -1.4807500000       -0.0892240000
 H       -0.8028660000        2.5415440000        0.0626160000
 H       -0.8027150000       -2.5730330000       -0.1053080000
 O       -3.1468830000       -1.3731970000        0.0491200000
 O       -3.1568770000        1.3562140000        0.0891680000
 N        1.6354220000        1.1129170000       -0.1080900000
 C        2.5485910000        0.0102800000        0.1163400000
 C        2.0327990000        2.4783510000        0.0748610000
 H        1.4100610000        3.1383020000       -0.5469240000
 H        3.0796740000        2.6029300000       -0.2358470000
 H        1.9384590000        2.8066220000        1.1273250000
 C        1.7470230000       -1.2255370000       -0.3355850000
 H        2.7999140000       -0.1110390000        1.1882410000
 H        3.4853750000        0.1564210000       -0.4448020000
 O        2.0008420000       -2.3925250000        0.3798590000
 H        1.9140830000       -1.3748680000       -1.4220300000
 H        2.7642620000       -2.8347100000       -0.0033260000

