%nproc=8
%mem=18000mb
#P PBE1PBE DEF2TZVPP OPT FREQ SCF(tight) INT(ultrafine)

 6-phenyl-3c_2c_rd

 1 2
 C       -3.7682510000       -2.3646520000       -0.0068660000
 C       -4.3848800000       -1.0907160000       -0.1186300000
 C       -3.6134030000        0.0429760000       -0.1049340000
 C       -2.4118420000       -2.4194060000        0.1298670000
 N       -1.6479800000       -1.2915370000        0.1564590000
 C       -2.2016690000       -0.0277190000        0.0215240000
 C       -1.3500910000        1.1159400000        0.0053240000
 N        0.0235350000        0.9678690000       -0.1554480000
 C       -0.2269990000       -1.3792230000        0.4323710000
 C        0.5523420000       -0.3876660000       -0.4207470000
 H        0.1204290000       -2.3959720000        0.2105370000
 H       -0.0455630000       -1.1834820000        1.5028590000
 C       -1.8497070000        2.4380260000        0.1315480000
 C       -1.0170970000        3.5260540000        0.0817580000
 C        0.3732360000        3.3298030000       -0.1057360000
 C        0.8445330000        2.0525770000       -0.2213320000
 H       -4.3479830000       -3.2873240000       -0.0303400000
 H       -1.8666710000       -3.3594040000        0.2333680000
 H        1.0703840000        4.1660990000       -0.1566400000
 H        1.9009110000        1.8298170000       -0.3713550000
 H       -4.0854440000        1.0165600000       -0.2281100000
 H       -2.9162150000        2.5824950000        0.2974150000
 H       -5.4676440000       -1.0123210000       -0.2316140000
 H       -1.4242290000        4.5326670000        0.1928950000
 C        2.0366550000       -0.5261600000       -0.1874110000
 H        0.3407530000       -0.6103770000       -1.4813830000
 C        2.8743120000       -0.8589960000       -1.2565110000
 C        2.5884320000       -0.3682110000        1.0921900000
 C        3.9552590000       -0.5402800000        1.2925920000
 C        4.2425510000       -1.0351030000       -1.0531480000
 C        4.7836110000       -0.8763100000        0.2207210000
 H        2.4550860000       -0.9828690000       -2.2591260000
 H        4.8870240000       -1.2962580000       -1.8953420000
 H        5.8554530000       -1.0129760000        0.3809420000
 H        1.9556620000       -0.0937800000        1.9413850000
 H        4.3772120000       -0.4128000000        2.2919590000

