%nproc=8
%mem=18000mb
#P PBE1PBE DEF2TZVPP OPT FREQ SCF(tight) INT(ultrafine)

 3355-tchlorodiphenq_n_gn

 0 1
 C        0.0000000000        2.8114640000        1.2413030000
 C        0.0000000000        3.6263140000        0.0000020000
 C        0.0000000000        1.4565990000        1.2309660000
 C        0.0000000000        0.7018350000       -0.0000060000
 C        0.0000000000        1.4566060000       -1.2309740000
 C        0.0000000000        2.8114700000       -1.2413040000
 H        0.0000000000        0.9450840000        2.1917630000
 H        0.0000000000        0.9450970000       -2.1917750000
 C       -0.0000000000       -0.7018350000       -0.0000060000
 C       -0.0000000000       -1.4565990000        1.2309660000
 C       -0.0000000000       -2.8114640000        1.2413030000
 C       -0.0000000000       -3.6263140000        0.0000020000
 C       -0.0000000000       -2.8114700000       -1.2413040000
 C       -0.0000000000       -1.4566060000       -1.2309740000
 H       -0.0000000000       -0.9450970000       -2.1917750000
 H       -0.0000000000       -0.9450840000        2.1917630000
 O        0.0000000000        4.8354110000        0.0000050000
 O       -0.0000000000       -4.8354110000        0.0000050000
Cl        0.0000000000        3.6933410000        2.7070730000
Cl        0.0000000000        3.6933560000       -2.7070700000
Cl       -0.0000000000       -3.6933410000        2.7070730000
Cl       -0.0000000000       -3.6933560000       -2.7070700000

