%nproc=8
%mem=18000mb
#P PBE1PBE DEF2TZVPP OPT FREQ SCF(tight) INT(ultrafine)

 3y_2c_gn

 2 1
 C        0.0000000000        5.6891640000       -0.6970090000
 C        0.0000000000        4.9148400000        0.4259870000
 N        0.0000000000        3.5380130000        0.3427580000
 C        0.0000000000        2.9109020000       -0.8964130000
 C        0.0000000000        5.0821960000       -1.9738280000
 C        0.0000000000        3.7121860000       -2.0611200000
 C        0.0000000000        2.7936440000        1.4900800000
 C        0.0000000000        1.4169810000        1.4745050000
 C        0.0000000000        0.7321000000        0.2104980000
 C        0.0000000000        1.5025820000       -0.9362540000
 C        0.0000000000        0.6756810000        2.7146790000
 C       -0.0000000000       -0.6756810000        2.7146790000
 C       -0.0000000000       -1.4169810000        1.4745050000
 C       -0.0000000000       -0.7321000000        0.2104980000
 C       -0.0000000000       -2.7936440000        1.4900800000
 C       -0.0000000000       -1.5025820000       -0.9362540000
 C       -0.0000000000       -2.9109020000       -0.8964130000
 N       -0.0000000000       -3.5380130000        0.3427580000
 C       -0.0000000000       -4.9148400000        0.4259870000
 C       -0.0000000000       -5.6891640000       -0.6970090000
 C       -0.0000000000       -3.7121860000       -2.0611200000
 C       -0.0000000000       -5.0821960000       -1.9738280000
 H        0.0000000000        6.7755420000       -0.5875110000
 H        0.0000000000        5.3275720000        1.4357160000
 H        0.0000000000        5.6976620000       -2.8760220000
 H        0.0000000000        3.2076880000       -3.0289420000
 H        0.0000000000        1.2268750000        3.6576360000
 H       -0.0000000000       -1.2268750000        3.6576360000
 H        0.0000000000        3.3602060000        2.4225490000
 H        0.0000000000        1.0529590000       -1.9294860000
 H       -0.0000000000       -1.0529590000       -1.9294860000
 H       -0.0000000000       -3.3602060000        2.4225490000
 H       -0.0000000000       -5.3275720000        1.4357160000
 H       -0.0000000000       -6.7755420000       -0.5875110000
 H       -0.0000000000       -3.2076880000       -3.0289420000
 H       -0.0000000000       -5.6976620000       -2.8760220000

