%nproc=8
%mem=18000mb
#P PBE1PBE DEF2TZVPP OPT FREQ SCF(tight) INT(ultrafine)

 231213-tetramethyl-3e_2c_rd

 1 2
 C        3.5411850000       -0.3114830000        0.0968160000
 C        2.8500970000       -1.5109330000       -0.2945740000
 C        1.4716650000       -1.4891850000       -0.2965050000
 C        2.7839570000        0.7516640000        0.5045770000
 N        1.4158880000        0.7436310000        0.5436790000
 C        0.7160890000       -0.3521600000        0.0668860000
 H        3.2516900000        1.6738800000        0.8562050000
 C       -0.7160890000       -0.3521600000       -0.0668870000
 N       -1.4158880000        0.7436310000       -0.5436790000
 C        0.7669390000        1.8305580000        1.2900280000
 C        0.5862720000        3.1124850000        0.4864880000
 H        1.4009180000        2.0283590000        2.1660900000
 H       -0.1883140000        1.4499970000        1.6807320000
 C       -0.7669390000        1.8305600000       -1.2900260000
 C       -0.5862730000        3.1124860000       -0.4864840000
 H       -1.4009180000        2.0283620000       -2.1660880000
 H        0.1883140000        1.4500000000       -1.6807300000
 H        1.5267940000        3.3161580000       -0.0533290000
 H        0.4649930000        3.9466650000        1.1949250000
 H       -1.5267940000        3.3161560000        0.0533330000
 H       -0.4649940000        3.9466670000       -1.1949200000
 C       -1.4716650000       -1.4891840000        0.2965040000
 C       -2.8500970000       -1.5109330000        0.2945730000
 C       -3.5411850000       -0.3114830000       -0.0968170000
 C       -2.7839570000        0.7516650000       -0.5045770000
 H       -3.2516900000        1.6738800000       -0.8562050000
 C       -3.6125240000       -2.7211970000        0.7239960000
 H       -2.9428130000       -3.5460000000        0.9998450000
 H       -4.2775290000       -3.0752360000       -0.0804020000
 H       -4.2587770000       -2.5004360000        1.5890270000
 C       -5.0346030000       -0.2271870000       -0.0784960000
 H       -5.4855380000       -0.9968470000       -0.7246510000
 H       -5.3892960000        0.7532060000       -0.4235400000
 H       -5.4315820000       -0.3910350000        0.9360480000
 C        3.6125240000       -2.7211990000       -0.7239910000
 H        2.9428120000       -3.5459840000       -0.9998910000
 H        4.2774820000       -3.0752690000        0.0804320000
 H        4.2588240000       -2.5004290000       -1.5889840000
 C        5.0346030000       -0.2271850000        0.0784880000
 H        5.3892970000        0.7531890000        0.4235870000
 H        5.4315730000       -0.3909700000       -0.9360700000
 H        5.4855450000       -0.9968820000        0.7245920000
 H        0.9257440000       -2.3595160000       -0.6650890000
 H       -0.9257440000       -2.3595160000        0.6650880000

