%nproc=8
%mem=18000mb
#P PBE1PBE DEF2TZVPP OPT FREQ SCF(tight) INT(ultrafine)

 231213-tetramethyl-3e_2c_ox

 3 2
 C       -3.5327260000       -0.3752140000       -0.1336780000
 C       -2.8364240000       -1.4920790000        0.4247930000
 C       -1.4406500000       -1.4266530000        0.4171870000
 C       -2.7546950000        0.6856540000       -0.6757320000
 N       -1.4217630000        0.7319070000       -0.6336970000
 C       -0.7306540000       -0.3095620000       -0.0542780000
 H       -3.2510500000        1.5123240000       -1.1945350000
 C        0.7306530000       -0.3095610000        0.0542820000
 N        1.4217610000        0.7319140000        0.6336910000
 C       -0.7507780000        1.8697610000       -1.3432240000
 C       -0.5901200000        3.1145960000       -0.4803420000
 H       -1.3849250000        2.0833510000       -2.2141300000
 H        0.2015550000        1.4924770000       -1.7431920000
 C        0.7507760000        1.8697760000        1.3432040000
 C        0.5901190000        3.1146010000        0.4803080000
 H        1.3849210000        2.0833750000        2.2141080000
 H       -0.2015580000        1.4924970000        1.7431760000
 H       -1.5335440000        3.3052170000        0.0592130000
 H       -0.4793930000        3.9657920000       -1.1708170000
 H        1.5335440000        3.3052140000       -0.0592500000
 H        0.4793930000        3.9658060000        1.1707730000
 C        1.4406500000       -1.4266560000       -0.4171730000
 C        2.8364240000       -1.4920820000       -0.4247750000
 C        3.5327260000       -0.3752160000        0.1336960000
 C        2.7546940000        0.6856590000        0.6757320000
 H        3.2510470000        1.5123340000        1.1945300000
 C        3.5604740000       -2.6532140000       -0.9900550000
 H        2.8828220000       -3.4322100000       -1.3599040000
 H        4.2285230000       -3.1008010000       -0.2322850000
 H        4.2171700000       -2.3383770000       -1.8209740000
 C        4.9976390000       -0.3077800000        0.2111040000
 H        5.4536550000       -0.4820530000       -0.7844580000
 H        5.3924100000       -1.1476150000        0.8235800000
 H        5.3768020000        0.6337600000        0.6270550000
 C       -3.5604710000       -2.6532020000        0.9900930000
 H       -2.8828170000       -3.4322720000        1.3597830000
 H       -4.2286840000       -3.1006810000        0.2324080000
 H       -4.2169980000       -2.3383710000        1.8211500000
 C       -4.9976390000       -0.3077850000       -0.2111080000
 H       -5.3768070000        0.6339010000       -0.6267270000
 H       -5.4537230000       -0.4825150000        0.7843310000
 H       -5.3923250000       -1.1473650000       -0.8240040000
 H       -0.8729530000       -2.2483960000        0.8613230000
 H        0.8729540000       -2.2484010000       -0.8613070000

