%nproc=8
%mem=18000mb
#P PBE1PBE DEF2TZVPP OPT FREQ SCF(tight) INT(ultrafine)

 1-10-phenanthroline_n_gn

 0 1
 N       -0.0000000000        1.3759930000       -1.5529640000
 C       -0.0000000000        2.6908770000       -1.5499380000
 C       -0.0000000000        0.7285080000       -0.3758830000
 C       -0.0000000000        3.4735120000       -0.3781220000
 C       -0.0000000000        2.8253130000        0.8377390000
 C       -0.0000000000        1.4148420000        0.8702570000
 C       -0.0000000000       -0.7285080000       -0.3758830000
 C       -0.0000000000       -1.4148420000        0.8702570000
 C       -0.0000000000        0.6800980000        2.1003000000
 C       -0.0000000000       -0.6800980000        2.1003000000
 N       -0.0000000000       -1.3759930000       -1.5529640000
 C       -0.0000000000       -2.6908770000       -1.5499380000
 C       -0.0000000000       -3.4735120000       -0.3781220000
 C       -0.0000000000       -2.8253130000        0.8377390000
 H       -0.0000000000        3.1825230000       -2.5309870000
 H       -0.0000000000        4.5637090000       -0.4431280000
 H       -0.0000000000        3.3849800000        1.7773530000
 H       -0.0000000000        1.2366470000        3.0413850000
 H       -0.0000000000       -1.2366470000        3.0413850000
 H       -0.0000000000       -4.5637090000       -0.4431280000
 H       -0.0000000000       -3.3849800000        1.7773530000
 H       -0.0000000000       -3.1825230000       -2.5309870000

