%nproc=8
%mem=18000mb
#P PBE1PBE DEF2TZVPP OPT FREQ SCF(tight) INT(ultrafine)

 310-dimethyl-3c_2c_gn

 2 1
 C        3.5497830000       -0.2882790000       -0.0125870000
 C        2.8743810000       -1.4972220000       -0.2433890000
 C        1.4851260000       -1.5495390000       -0.2492240000
 C        2.7497680000        0.8347010000        0.1906550000
 N        1.4038530000        0.7710190000        0.1820920000
 C        0.7369160000       -0.3969590000       -0.0203010000
 C       -0.7369160000       -0.3969590000        0.0203000000
 N       -1.4038530000        0.7710190000       -0.1820920000
 C        0.6129470000        1.9857030000        0.4391890000
 C       -0.6129470000        1.9857030000       -0.4391900000
 H        1.2320500000        2.8645270000        0.2187620000
 H        0.3477380000        2.0106420000        1.5092380000
 H       -0.3477380000        2.0106420000       -1.5092380000
 H       -1.2320500000        2.8645270000       -0.2187620000
 C       -1.4851260000       -1.5495390000        0.2492240000
 C       -2.8743810000       -1.4972220000        0.2433890000
 C       -3.5497830000       -0.2882790000        0.0125870000
 C       -2.7497680000        0.8347010000       -0.1906550000
 H        3.1813540000        1.8230370000        0.3664310000
 H       -3.1813540000        1.8230370000       -0.3664320000
 H        0.9809680000       -2.4941850000       -0.4555780000
 H       -0.9809680000       -2.4941850000        0.4555780000
 H       -3.4454100000       -2.4116000000        0.4287940000
 H        3.4454100000       -2.4116000000       -0.4287950000
 C       -5.0374210000       -0.1938890000       -0.0036390000
 H       -5.4545450000       -0.5339750000        0.9576150000
 H       -5.4532800000       -0.8513150000       -0.7838830000
 H       -5.3887330000        0.8286430000       -0.1909190000
 C        5.0374210000       -0.1938900000        0.0036400000
 H        5.3887330000        0.8286450000        0.1909080000
 H        5.4545470000       -0.5339870000       -0.9576090000
 H        5.4532780000       -0.8513060000        0.7838930000

