%nproc=8
%mem=18000mb
#P PBE1PBE DEF2TZVPP OPT FREQ SCF(tight) INT(ultrafine)

 carbethoxy-7m_n_ox

 1 2
 C        1.4683890000        3.1207950000       -0.9335040000
 C        0.2497180000        3.7742590000       -0.7193020000
 C        1.5729910000        1.7501760000       -0.7653400000
 C        0.4441070000        0.9965810000       -0.3636010000
 C       -0.7726280000        1.6787940000       -0.1288300000
 C       -0.8741850000        3.0459410000       -0.3093490000
 H        2.3428610000        3.6885010000       -1.2573560000
 H        2.5178700000        1.2526540000       -0.9907750000
 H        0.1714010000        4.8531480000       -0.8698560000
 H       -1.8323710000        3.5383870000       -0.1241350000
 N        0.5307890000       -0.3816810000       -0.2953240000
 C       -0.5392730000       -1.2564880000       -0.2831580000
 C       -1.8579940000       -0.7961590000       -0.0396570000
 S       -2.1183390000        0.8207230000        0.6370940000
 C       -0.3506620000       -2.6299990000       -0.5799150000
 C       -1.4419810000       -3.4804030000       -0.6448770000
 C       -2.7385620000       -3.0001060000       -0.4331010000
 C       -2.9421370000       -1.6490590000       -0.1213730000
 H        0.6427670000       -3.0122180000       -0.8139410000
 H       -1.2823740000       -4.5326770000       -0.8881640000
 H       -3.9445120000       -1.2558050000        0.0675440000
 H       -3.5942560000       -3.6748770000       -0.5062020000
 O       -3.3813150000        1.3576950000        0.1669510000
 O       -1.8059900000        0.7331840000        2.0555500000
 C        1.8958310000       -0.9617380000       -0.2939160000
 O        2.3957480000       -0.7936670000        0.8912530000
 O        2.3545800000       -1.4793230000       -1.2614250000
 C        3.7411390000       -1.2992530000        1.1449500000
 C        4.7865930000       -0.2907350000        0.7467830000
 H        3.7394060000       -1.4935030000        2.2243090000
 H        3.8513430000       -2.2482020000        0.6014010000
 H        4.8028980000       -0.1291620000       -0.3411460000
 H        5.7766050000       -0.6731660000        1.0361860000
 H        4.6340020000        0.6683600000        1.2623940000

