%nproc=8
%mem=18000mb
#P PBE1PBE DEF2TZVPP OPT(calcall) FREQ SCF(tight) INT(ultrafine)

 p-methylphenol_n_gn

 0 1
 C       -0.0000200000        0.0630700000       -0.2014600000
 C       -0.0000200000        1.2806000000        0.4821900000
 C       -0.0000100000        1.2919900000        1.8777200000
 O        0.0000100000        2.4570000000        2.6152900000
 C       -0.0000200000        0.0839100000        2.5811200000
 C       -0.0000200000       -1.1185400000        1.8819300000
 H       -0.0000100000       -2.0510600000        2.4427400000
 C       -0.0000200000       -1.1575300000        0.4792400000
 C        0.0000000000       -2.4736200000       -0.2640200000
 H       -0.0000200000        0.0697900000       -1.2893200000
 H        0.0000100000        3.2090400000        2.0006400000
 H       -0.0000100000        0.1031100000        3.6668000000
 H       -0.0000200000        2.2180800000       -0.0719200000
 H        0.0000000000       -2.3126400000       -1.3462500000
 H       -0.8830500000       -3.0737300000       -0.0133100000
 H        0.8830600000       -3.0737100000       -0.0133100000

