%nproc=8
%mem=18000mb
#P PBE1PBE DEF2TZVPP OPT FREQ SCF(tight) INT(ultrafine)

 11-bis-a-cyanobenzyl-3l_2c_rd

 1 2
 N        3.4192060000       -0.7862110000       -0.4835710000
 C        2.4786680000       -1.2077710000       -1.3781380000
 C        1.1561090000       -0.9121100000       -1.2189900000
 C        3.0241910000       -0.0650570000        0.6060720000
 C        1.7131610000        0.2521140000        0.8122420000
 C        0.6900570000       -0.1586850000       -0.0975940000
 C       -0.6900570000        0.1586910000        0.0975860000
 C       -1.7131620000       -0.2521150000       -0.8122450000
 C       -1.1561090000        0.9121230000        1.2189780000
 C       -2.4786670000        1.2077830000        1.3781250000
 C       -3.0241920000        0.0650560000       -0.6060760000
 N       -3.4192060000        0.7862170000        0.4835630000
 H       -1.4818610000       -0.8351840000       -1.7025900000
 H       -3.8176540000       -0.2462230000       -1.2870140000
 H        2.8433340000       -1.7926150000       -2.2242420000
 H        0.4726150000       -1.2768410000       -1.9845140000
 H        1.4818590000        0.8351760000        1.7025910000
 H        3.8176520000        0.2462160000        1.2870140000
 H       -2.8433330000        1.7926330000        2.2242260000
 H       -0.4726140000        1.2768610000        1.9844980000
 C        4.8280870000       -1.2133670000       -0.6302810000
 C        5.0382220000       -2.4381940000        0.1541390000
 N        5.1692410000       -3.4058670000        0.7731930000
 C        5.8112880000       -0.1063130000       -0.2983630000
 H        4.9513070000       -1.4850400000       -1.6912780000
 C        5.8581310000        1.0125290000       -1.1395210000
 C        6.6574370000       -0.1779570000        0.8104340000
 C        7.5417960000        0.8675810000        1.0786950000
 C        7.5820560000        1.9818850000        0.2446990000
 C        6.7389510000        2.0534080000       -0.8660910000
 H        6.6401780000       -1.0566360000        1.4605330000
 H        8.2059910000        0.8036720000        1.9432790000
 H        8.2781770000        2.7970680000        0.4546240000
 H        5.2053870000        1.0706380000       -2.0154620000
 H        6.7759230000        2.9215280000       -1.5278550000
 C       -4.8280880000        1.2133720000        0.6302710000
 C       -5.0382270000        2.4381900000       -0.1541610000
 N       -5.1692490000        3.4058570000       -0.7732250000
 C       -5.8112870000        0.1063130000        0.2983680000
 H       -4.9513050000        1.4850560000        1.6912660000
 C       -6.6574400000        0.1779450000       -0.8104280000
 C       -7.5417980000       -0.8675980000       -1.0786750000
 C       -7.5820530000       -1.9818940000       -0.2446680000
 C       -6.7389440000       -2.0534040000        0.8661200000
 C       -5.8581260000       -1.0125210000        1.1395370000
 H       -6.6401840000        1.0566170000       -1.4605350000
 H       -8.2059950000       -0.8036990000       -1.9432570000
 H       -8.2781730000       -2.7970800000       -0.4545830000
 H       -6.7759120000       -2.9215180000        1.5278930000
 H       -5.2053780000       -1.0706200000        2.0154770000

