%nproc=8
%mem=18000mb
#P PBE1PBE DEF2TZVPP OPT FREQ SCF(tight) INT(ultrafine)

 i47di-1-co2et-23-ch23-5-met_n_ox

 1 2
 C        2.5964140000       -2.0232530000       -0.0274000000
 C        3.4314450000       -0.9492980000       -0.0079370000
 C        1.1461280000       -1.8695620000       -0.0209680000
 C        0.6127470000       -0.5386660000        0.0089050000
 C        2.9058250000        0.4765110000        0.0216540000
 C        1.4499180000        0.5986790000        0.0287810000
 C       -0.7164130000       -0.1191750000        0.0145210000
 C        0.5991220000        1.6976670000        0.0442000000
 N       -0.6853960000        1.2413030000        0.0298310000
 O        0.4133850000       -2.8793320000       -0.0392210000
 O        3.6694560000        1.4148110000        0.0354650000
 C       -1.6763500000        2.3175620000        0.0835410000
 C       -0.8263640000        3.5494630000       -0.2676680000
 H       -2.1014800000        2.3603930000        1.0991870000
 H       -2.4946510000        2.1230130000       -0.6208420000
 C        0.6251510000        3.1812480000        0.1046760000
 H       -1.1821240000        4.4494310000        0.2497980000
 H       -0.8924810000        3.7443920000       -1.3483170000
 H        0.8921870000        3.5010950000        1.1271900000
 H        1.3814100000        3.6149690000       -0.5641120000
 C       -1.8669860000       -1.0118650000       -0.0005400000
 O       -1.7107140000       -2.2308330000       -0.0230630000
 O       -3.0363440000       -0.4330690000        0.0139110000
 C       -4.2188210000       -1.2834840000        0.0038380000
 C       -5.4304060000       -0.3963920000        0.0233250000
 H       -4.1601720000       -1.9430310000        0.8826440000
 H       -4.1668600000       -1.9139200000       -0.8964750000
 H       -5.4558330000        0.2286320000        0.9273840000
 H       -6.3336260000       -1.0232120000        0.0202000000
 H       -5.4674320000        0.2530920000       -0.8630280000
 C        4.9064380000       -1.0864490000       -0.0135920000
 H        5.2286630000       -2.1340280000       -0.0387960000
 H        5.3297930000       -0.5885570000        0.8739770000
 H        5.3271500000       -0.5465140000       -0.8774290000
 H        2.9798740000       -3.0454020000       -0.0489410000

