%nproc=8
%mem=18000mb
#P PBE1PBE DEF2TZVPP OPT FREQ SCF(tight) INT(ultrafine)

 4-2-pyridyl-3c_2c_ox

 3 2
 C       -4.8093140000       -1.1982620000       -0.1059170000
 C       -4.7749400000        0.0963640000       -0.6147070000
 C       -3.5709570000        0.8103790000       -0.5984210000
 C       -3.6365360000       -1.7547530000        0.3880040000
 N       -2.4863010000       -1.0552390000        0.3891580000
 C       -2.4228270000        0.2256390000       -0.0760600000
 C       -1.1330460000        0.9501500000        0.0050120000
 N        0.0341590000        0.2422320000        0.0391390000
 C       -1.2562790000       -1.6401140000        0.9384130000
 C       -0.0763090000       -1.2328490000        0.0861020000
 H       -1.3484340000       -2.7345950000        0.9369970000
 H       -1.1417400000       -1.3099440000        1.9847010000
 H       -0.1712050000       -1.6131530000       -0.9450940000
 H        0.8379280000       -1.6443420000        0.5317270000
 C       -1.0941570000        2.3449820000        0.0439190000
 C        0.1259350000        3.0074500000        0.0887300000
 C        1.3067430000        2.2618120000        0.0765370000
 C        1.2453140000        0.8755700000        0.0473100000
 H       -5.7292120000       -1.7895630000       -0.0951550000
 H       -3.5960990000       -2.7704570000        0.7916620000
 H        2.2792510000        2.7604260000        0.0749180000
 H       -3.5378620000        1.8172070000       -1.0182660000
 H       -2.0242830000        2.9153510000        0.0666460000
 H       -5.6773820000        0.5569790000       -1.0282900000
 H        0.1624280000        4.1007440000        0.1267560000
 C        2.5261100000        0.1093100000        0.0155240000
 N        2.8533020000       -0.6841020000       -0.9954090000
 C        3.5571150000        0.2533220000        0.9607520000
 C        3.9438800000       -1.3214110000       -1.3058530000
 C        4.9934420000       -1.1885690000       -0.3697490000
 C        4.7796190000       -0.3984270000        0.7560850000
 H        4.0111630000       -1.9103380000       -2.2340430000
 H        5.9374990000       -1.7095100000       -0.5679070000
 H        5.5852430000       -0.2736050000        1.4892540000
 H        3.3818240000        0.8810010000        1.8417860000

