%nproc=8
%mem=18000mb
#P PBE1PBE DEF2TZVPP OPT FREQ SCF(tight) INT(ultrafine)

 11-bis-2-chloroethyl-22-dimethyl-3p_2c_ox

 3 2
 N       -3.4234030000       -0.8624890000        0.2538310000
 C       -2.7405610000       -1.4834960000       -0.7366740000
 C       -1.3941020000       -1.2671240000       -0.9449340000
 C       -0.7051210000       -0.3715780000       -0.1086730000
 C       -2.8010120000        0.0095120000        1.1002490000
 C       -1.4353220000        0.2584560000        0.9006430000
 C        0.7513510000       -0.1213690000       -0.2911210000
 C        1.6259140000       -1.1669910000       -0.6298760000
 C        2.9675740000       -0.8944410000       -0.8108940000
 N        3.4695510000        0.3553070000       -0.6685770000
 C        2.6636950000        1.4067160000       -0.3390750000
 C        1.2983840000        1.1558890000       -0.1473920000
 H       -3.3062420000       -2.1800830000       -1.3607450000
 H       -0.9077980000       -1.7902200000       -1.7709290000
 H       -0.9498910000        0.9418180000        1.6000110000
 H        1.2877300000       -2.1982230000       -0.7508890000
 H        3.6741550000       -1.6766280000       -1.0965520000
 H        0.6656930000        2.0133460000        0.0898900000
 C       -4.8604650000       -1.1965690000        0.3977510000
 C       -5.7710220000       -0.5376280000       -0.6233680000
 H       -4.9622500000       -2.2870660000        0.2831570000
 H       -5.1783860000       -0.9576780000        1.4188900000
Cl       -5.7955650000        1.2306050000       -0.5698530000
 H       -6.8141410000       -0.8754450000       -0.4802490000
 H       -5.5173710000       -0.7908490000       -1.6722440000
 C        4.9220300000        0.5348460000       -0.8995400000
 C        5.7833090000        0.3255290000        0.3342180000
 H        5.0963030000        1.5506590000       -1.2772700000
 H        5.2181310000       -0.1555990000       -1.7020440000
Cl        5.8082740000       -1.3417470000        0.9288950000
 H        6.8388060000        0.5643690000        0.0905500000
 H        5.5207520000        0.9606760000        1.1978380000
 C        3.2177890000        2.7834850000       -0.2263540000
 H        3.5624490000        3.1526310000       -1.2087460000
 H        4.0644170000        2.8473560000        0.4732980000
 H        2.4442730000        3.4760260000        0.1261020000
 C       -3.5375940000        0.6370920000        2.2295790000
 H       -4.4488980000        1.1576850000        1.8948390000
 H       -2.9007810000        1.3704460000        2.7383070000
 H       -3.8351130000       -0.1175070000        2.9790570000

