%nproc=8
%mem=18000mb
#P PBE1PBE DEF2TZVPP OPT FREQ SCF(tight) INT(ultrafine)

 11-bis-2-chloroethyl-22-dimethyl-3p_2c_gn

 2 1
 N       -3.4064230000       -0.9187720000        0.2199240000
 C       -2.7535350000       -1.4424220000       -0.8417860000
 C       -1.4129880000       -1.2197270000       -1.0577530000
 C       -0.7043150000       -0.4126850000       -0.1536720000
 C       -2.7626640000       -0.1441410000        1.1339220000
 C       -1.4014430000        0.1090710000        0.9356250000
 C        0.7403390000       -0.1352920000       -0.3474260000
 C        1.6154590000       -1.1390020000       -0.7809180000
 C        2.9521070000       -0.8403780000       -0.9448100000
 N        3.4377600000        0.3991310000       -0.7110960000
 C        2.6259590000        1.4113020000       -0.2965930000
 C        1.2709880000        1.1366050000       -0.1122170000
 H       -3.3499260000       -2.0535430000       -1.5224430000
 H       -0.9431730000       -1.6560320000       -1.9407260000
 H       -0.8899840000        0.7138250000        1.6861130000
 H        1.2821550000       -2.1606980000       -0.9700730000
 H        3.6758880000       -1.5895180000       -1.2673930000
 H        0.6261550000        1.9616400000        0.1949060000
 C       -4.8622930000       -1.1780910000        0.3058870000
 C       -5.6588780000       -0.3469530000       -0.6859590000
 H       -5.0211210000       -2.2483790000        0.1051450000
 H       -5.1881780000       -0.9855200000        1.3325280000
Cl       -5.3567200000        1.3929290000       -0.4987970000
 H       -6.7290310000       -0.5357430000       -0.5195100000
 H       -5.4269200000       -0.6145560000       -1.7270130000
 C        4.8964210000        0.5863510000       -0.8554540000
 C        5.6598920000        0.2754580000        0.4228770000
 H        5.0921570000        1.6189170000       -1.1698100000
 H        5.2291650000       -0.0726660000       -1.6684400000
Cl        5.4106020000       -1.3987200000        0.9552930000
 H        6.7321080000        0.4170360000        0.2255540000
 H        5.3742690000        0.9376910000        1.2520380000
 C        3.1789800000        2.7772670000       -0.0765490000
 H        3.5622840000        3.2075330000       -1.0166950000
 H        4.0011100000        2.7807020000        0.6543070000
 H        2.3944020000        3.4451180000        0.2974170000
 C       -3.4792950000        0.3915210000        2.3241580000
 H       -4.3333770000        1.0165610000        2.0233640000
 H       -2.7984750000        1.0036020000        2.9267870000
 H       -3.8532660000       -0.4233470000        2.9657140000

