%nproc=8
%mem=18000mb
#P PBE1PBE DEF2TZVPP OPT FREQ SCF(tight) INT(ultrafine)

 11-bis-2-chloroethyl-22-dimethyl-3p_2c_rd

 1 2
 N       -3.4253960000       -0.6379840000        0.6994350000
 C       -2.6523460000       -1.6563970000        0.2106420000
 C       -1.3287900000       -1.5074460000       -0.0683820000
 C       -0.6763900000       -0.2548210000        0.1370290000
 C       -2.8506570000        0.5907080000        0.9396340000
 C       -1.5149450000        0.7690790000        0.6659640000
 C        0.7084430000       -0.0523200000       -0.1571260000
 C        1.5431930000       -1.0834140000       -0.6805840000
 C        2.8608620000       -0.8547500000       -0.9394800000
 N        3.4521250000        0.3604920000       -0.7261640000
 C        2.6957130000        1.4026220000       -0.2333410000
 C        1.3656740000        1.1977140000        0.0413570000
 H       -3.1622100000       -2.6098060000        0.0626260000
 H       -0.7955320000       -2.3788280000       -0.4456990000
 H       -1.1101230000        1.7567490000        0.8810260000
 H        1.1615240000       -2.0814880000       -0.8903920000
 H        3.5145050000       -1.6359750000       -1.3266050000
 H        0.8142550000        2.0569520000        0.4202910000
 C       -4.8502710000       -0.8997410000        0.8818930000
 C       -5.6316300000       -0.9561200000       -0.4193080000
 H       -4.9589150000       -1.8692010000        1.3949450000
 H       -5.2729000000       -0.1391630000        1.5469140000
Cl       -5.5589990000        0.5741470000       -1.3251150000
 H       -6.6867720000       -1.1706380000       -0.1996720000
 H       -5.2520810000       -1.7446240000       -1.0845980000
 C        4.8854940000        0.4833840000       -0.9691070000
 C        5.7515470000        0.1538910000        0.2351490000
 H        5.1094950000        1.5063410000       -1.2998940000
 H        5.1439160000       -0.1835390000       -1.8038200000
Cl        5.5831690000       -1.5434020000        0.7423560000
 H        6.8063540000        0.3224180000       -0.0231180000
 H        5.5025180000        0.7807120000        1.1024880000
 C        3.3377140000        2.7381400000       -0.0388830000
 H        3.6872750000        3.1631670000       -0.9938590000
 H        4.2006760000        2.6946420000        0.6427730000
 H        2.6118580000        3.4396550000        0.3887230000
 C       -3.6821500000        1.6900380000        1.5146630000
 H       -4.5365560000        1.9287640000        0.8640740000
 H       -3.0729420000        2.5946800000        1.6256340000
 H       -4.0711000000        1.4255680000        2.5114530000

