%nproc=8
%mem=18000mb
#P PBE1PBE DEF2TZVPP OPT FREQ SCF(tight) INT(ultrafine)

 211-dimethyl-3c_2c_rd

 1 2
 C        3.5132500000       -0.1087880000       -0.0640970000
 C        2.8746500000        1.1619380000        0.0753280000
 C        1.4976670000        1.1860120000        0.0943860000
 C        2.7540620000       -1.2331030000       -0.1847380000
 N        1.3931800000       -1.1897530000       -0.1719950000
 C        0.7130360000        0.0101610000       -0.0191800000
 C       -0.7130360000        0.0101610000        0.0191810000
 N       -1.3931800000       -1.1897530000        0.1719950000
 C        0.6201200000       -2.3919090000       -0.4327380000
 C       -0.6201200000       -2.3919090000        0.4327380000
 H        1.2388700000       -3.2708510000       -0.2095650000
 H        0.3416010000       -2.4298920000       -1.5002560000
 H       -0.3416010000       -2.4298920000        1.5002560000
 H       -1.2388700000       -3.2708510000        0.2095660000
 C       -1.4976670000        1.1860120000       -0.0943860000
 C       -2.8746500000        1.1619380000       -0.0753290000
 C       -3.5132500000       -0.1087880000        0.0640960000
 C       -2.7540620000       -1.2331030000        0.1847380000
 H        4.6005630000       -0.1950810000       -0.0723580000
 H        3.1928330000       -2.2256530000       -0.3038190000
 H       -4.6005630000       -0.1950810000        0.0723570000
 H       -3.1928330000       -2.2256530000        0.3038190000
 H        0.9878690000        2.1387930000        0.2338730000
 H       -0.9878690000        2.1387930000       -0.2338730000
 C       -3.6966010000        2.4005540000       -0.2100430000
 H       -3.0753140000        3.2992090000       -0.3157870000
 H       -4.3469540000        2.5301730000        0.6700170000
 H       -4.3602770000        2.3323820000       -1.0869990000
 C        3.6966010000        2.4005540000        0.2100430000
 H        3.0753140000        3.2992090000        0.3157870000
 H        4.3469540000        2.5301730000       -0.6700170000
 H        4.3602770000        2.3323820000        1.0869990000

