%nproc=8
%mem=18000mb
#P PBE1PBE DEF2TZVPP OPT FREQ SCF(tight) INT(ultrafine)

 p-methoxyphenol_n_rd

-1 2
 C       -0.9174400000        0.2989290000        0.0001710000
 C       -0.0716310000        1.3927700000        0.0012940000
 H       -0.4895670000        2.3912690000        0.0122740000
 C        1.3540150000        1.1592950000       -0.0017690000
 H        2.0552810000        1.9896050000       -0.0353000000
 C        1.8163180000       -0.1458100000       -0.0018920000
 O        3.1821400000       -0.3957310000       -0.0032130000
 H        3.5988740000        0.4644450000        0.0574110000
 C        0.9668380000       -1.2340020000       -0.0013200000
 H        1.3730180000       -2.2372820000        0.0234090000
 C       -0.4614330000       -0.9995280000       -0.0039180000
 H       -1.1422190000       -1.8423380000       -0.0093930000
 O       -2.2631340000        0.5994310000        0.0019940000
 C       -3.1241900000       -0.4843930000        0.0007650000
 H       -4.1399400000       -0.0821110000        0.0024090000
 H       -2.9920090000       -1.1167250000       -0.8887590000
 H       -2.9903500000       -1.1200310000        0.8877180000

