%nproc=8
%mem=18000mb
#P PBE1PBE DEF2TZVPP OPT FREQ SCF(tight) INT(ultrafine)

 p-methoxyphenol_n_gn

 0 1
 C        0.0425300000        0.2365300000       -0.1782000000
 C        0.0986300000        1.3565500000        0.6597600000
 H        0.1737100000        2.3443100000        0.2146300000
 C        0.0617800000        1.2012600000        2.0416400000
 H        0.1074800000        2.0782800000        2.6862000000
 C       -0.0335900000       -0.0765800000        2.6043800000
 O       -0.0941700000       -0.2893500000        3.9685200000
 H       -0.0870500000        0.5734200000        4.4137500000
 C       -0.0713300000       -1.1936500000        1.7736800000
 H       -0.1357700000       -2.1827700000        2.2161100000
 C       -0.0336400000       -1.0412300000        0.3862100000
 H       -0.0660900000       -1.9258600000       -0.2396300000
 O        0.0715400000        0.4943100000       -1.5319300000
 C        0.0062200000       -0.6375600000       -2.4034100000
 H        0.0331500000       -0.2298300000       -3.4145300000
 H        0.8636600000       -1.3063000000       -2.2521000000
 H       -0.9257500000       -1.1985300000       -2.2556700000

