%nproc=8
%mem=18000mb
#P PBE1PBE DEF2TZVPP OPT FREQ SCF(tight) INT(ultrafine)

 11-diallyl-3l_2c_rd

 1 2
 N       -3.5325930000        0.3122490000        0.3255140000
 C       -2.8412010000       -0.8619740000        0.2561210000
 C       -1.4820350000       -0.8903780000        0.1327600000
 C       -2.8410220000        1.4840530000        0.2627970000
 C       -1.4812310000        1.5139980000        0.1359760000
 C       -0.7116070000        0.3120530000        0.0650250000
 C        0.7116110000        0.3120520000       -0.0650290000
 C        1.4820370000       -0.8903790000       -0.1327720000
 C        2.8412030000       -0.8619770000       -0.2561350000
 N        3.5325960000        0.3122460000       -0.3255220000
 C        1.4812360000        1.5139970000       -0.1359730000
 C        2.8410270000        1.4840500000       -0.2627950000
 H       -3.4356320000        2.3970050000        0.3209550000
 H       -1.0101280000        2.4950460000        0.0909410000
 H       -3.4433830000       -1.7710730000        0.2945710000
 H       -1.0098770000       -1.8708570000        0.0852290000
 H        3.4356380000        2.3970020000       -0.3209490000
 H        1.0101340000        2.4950450000       -0.0909320000
 H        1.0098770000       -1.8708580000       -0.0852480000
 H        3.4433830000       -1.7710760000       -0.2945900000
 C       -4.9928630000        0.2936260000        0.4940150000
 C       -5.6890650000       -0.4685050000       -0.5903100000
 H       -5.3207650000        1.3440470000        0.5010040000
 H       -5.2307700000       -0.1291530000        1.4837310000
 C       -6.5086700000       -1.4947990000       -0.3614770000
 C        4.9928670000        0.2936220000       -0.4940200000
 C        5.6890670000       -0.4684920000        0.5903180000
 H        5.3207670000        1.3440430000       -0.5010250000
 H        5.2307750000       -0.1291730000       -1.4837290000
 C        6.5086490000       -1.4948090000        0.3615050000
 H        5.5127080000       -0.1209170000        1.6151710000
 H        6.7102940000       -1.8563880000       -0.6523910000
 H        7.0253860000       -2.0018390000        1.1800560000
 H       -5.5126900000       -0.1209600000       -1.6151700000
 H       -6.7103300000       -1.8563500000        0.6524250000
 H       -7.0254100000       -2.0018390000       -1.1800210000

