%nproc=8
%mem=18000mb
#P PBE1PBE DEF2TZVPP OPT FREQ SCF(tight) INT(ultrafine)

 11-diallyl-3l_2c_ox

 3 2
 N       -3.4953280000        0.0308130000       -0.4701870000
 C       -2.8816730000       -1.0664700000        0.0255640000
 C       -1.5117650000       -1.0903230000        0.2194920000
 C       -2.7805340000        1.1334910000       -0.7766220000
 C       -1.4076100000        1.1670000000       -0.5934650000
 C       -0.7385680000        0.0398100000       -0.0935200000
 C        0.7385680000        0.0398100000        0.0935200000
 C        1.5117650000       -1.0903230000       -0.2194920000
 C        2.8816730000       -1.0664690000       -0.0255640000
 N        3.4953280000        0.0308130000        0.4701870000
 C        1.4076100000        1.1670000000        0.5934650000
 C        2.7805340000        1.1334910000        0.7766220000
 H       -3.3284040000        1.9871220000       -1.1836870000
 H       -0.8762550000        2.0769800000       -0.8813430000
 H       -3.5132010000       -1.9285420000        0.2562510000
 H       -1.0691050000       -1.9986120000        0.6345980000
 H        3.3284040000        1.9871220000        1.1836870000
 H        0.8762550000        2.0769800000        0.8813430000
 H        1.0691050000       -1.9986120000       -0.6345980000
 H        3.5132010000       -1.9285410000       -0.2562510000
 C       -4.9598560000        0.0049590000       -0.6966590000
 C       -5.7649780000        0.1239220000        0.5554110000
 H       -5.2057950000       -0.9096760000       -1.2624000000
 H       -5.2056750000        0.8462410000       -1.3717800000
 C       -7.0651670000       -0.3064900000        0.6513710000
 C        4.9598560000        0.0049600000        0.6966590000
 C        5.7649780000        0.1239220000       -0.5554100000
 H        5.2057950000       -0.9096760000        1.2624000000
 H        5.2056750000        0.8462410000        1.3717790000
 C        7.0651670000       -0.3064900000       -0.6513710000
 H        5.3086370000        0.6297210000       -1.4162000000
 H        7.5748920000       -0.8248030000        0.1695700000
 H        7.6385950000       -0.1295240000       -1.5677140000
 H       -5.3086370000        0.6297210000        1.4162000000
 H       -7.5748920000       -0.8248030000       -0.1695690000
 H       -7.6385950000       -0.1295240000        1.5677140000

