%nproc=8
%mem=18000mb
#P PBE1PBE DEF2TZVPP OPT FREQ SCF(tight) INT(ultrafine)

 27-dimethyl-2-7-phenanthrolinium_2c_rd

 1 2
 C       -3.4241990000        0.8192100000       -0.0000330000
 C       -2.4268980000        1.7398430000       -0.0000170000
 C       -1.0550980000        1.3368050000       -0.0000040000
 C       -0.7864490000       -0.0801760000       -0.0000120000
 N       -3.1457090000       -0.5270010000       -0.0000400000
 C       -1.8621820000       -0.9501980000       -0.0000220000
 C        0.0019180000        2.2428080000        0.0000100000
 C        1.3276550000        1.8063570000        0.0000170000
 C        1.6359570000        0.4391350000        0.0000050000
 C        0.5976340000       -0.5539250000       -0.0000130000
 N        2.9551570000        0.0080390000        0.0000090000
 C        0.9531660000       -1.8990920000       -0.0000310000
 C        2.3048400000       -2.2831420000       -0.0000260000
 C        3.2702920000       -1.3134840000       -0.0000060000
 H       -4.4811300000        1.0887340000       -0.0000430000
 H       -2.6823880000        2.8007230000       -0.0000210000
 H       -1.7348940000       -2.0324010000       -0.0000200000
 H       -0.2099700000        3.3136920000        0.0000150000
 H        2.1207280000        2.5512140000        0.0000300000
 H        0.1915570000       -2.6793980000       -0.0000500000
 H        2.5966870000       -3.3331510000       -0.0000390000
 H        4.3349040000       -1.5499830000       -0.0000010000
 C        4.0282900000        0.9892770000        0.0000280000
 H        3.9706660000        1.6247110000        0.8961180000
 H        3.9706800000        1.6247310000       -0.8960490000
 H        4.9907990000        0.4667550000        0.0000300000
 C       -4.2524800000       -1.4738350000        0.0000890000
 H       -4.8740420000       -1.3310980000       -0.8957550000
 H       -4.8732130000       -1.3318810000        0.8966400000
 H       -3.8611970000       -2.4974040000       -0.0005550000

