%nproc=8
%mem=18000mb
#P PBE1PBE DEF2TZVPP OPT FREQ SCF(tight) INT(ultrafine)

 4-methyl-3c_2c_ox

 3 2
 C        3.1057340000        1.0496800000        0.1050420000
 C        2.2702270000        2.1426380000        0.2820880000
 C        0.8951910000        1.9346850000        0.2298920000
 C        2.5741990000       -0.2708580000       -0.1165860000
 N        1.2256590000       -0.4411080000       -0.0808790000
 C        0.3641900000        0.6253750000        0.0508140000
 C       -1.0718590000        0.4160400000        0.0033720000
 N       -1.5783800000       -0.8491910000        0.1999170000
 C        0.6299560000       -1.7882620000       -0.2629380000
 C       -0.6280710000       -1.9215820000        0.5571880000
 H        1.3439640000       -2.5458980000        0.0821410000
 H        0.4511780000       -1.9473040000       -1.3408280000
 H       -0.4325370000       -1.8574730000        1.6417470000
 H       -1.0951780000       -2.8957510000        0.3542660000
 C       -1.9766080000        1.4711880000       -0.2614940000
 C       -3.3531390000        1.2323280000       -0.3336100000
 C       -3.8195480000       -0.0594230000       -0.1215360000
 C       -2.8905550000       -1.0893320000        0.1532610000
 H        4.1958400000        1.1654010000        0.1185140000
 H       -4.8875950000       -0.3055460000       -0.1571070000
 H       -3.2183980000       -2.1178840000        0.3462270000
 C        3.4942970000       -1.3861160000       -0.3684350000
 H        4.4662780000       -1.0113390000       -0.7242080000
 H        3.1154360000       -2.1462450000       -1.0680330000
 H        3.7191160000       -1.9069600000        0.5941050000
 H        2.6797280000        3.1450840000        0.4507250000
 H        0.2210880000        2.7824800000        0.3704120000
 H       -1.6088360000        2.4820530000       -0.4506280000
 H       -4.0451140000        2.0533010000       -0.5529530000

