%nproc=8
%mem=18000mb
#P PBE1PBE DEF2TZVPP OPT(calcall) FREQ SCF(tight) INT(ultrafine)

 14-dihydroxy-6-sulfonate-910-aq_a_ox

 0 2
 C        2.3354250000       -1.6956200000       -0.0000310000
 C        2.6223180000       -0.3273950000       -0.0000020000
 C        1.0077010000       -2.1006270000       -0.0000230000
 C       -0.0168680000       -1.1488420000        0.0000230000
 C        0.2876210000        0.2158140000        0.0000690000
 C        1.6189240000        0.6347670000        0.0000600000
 H        3.1542920000       -2.4175500000       -0.0000600000
 H        0.7304710000       -3.1564900000       -0.0000560000
 H        1.8332890000        1.7057790000        0.0001000000
 C       -1.4327390000       -1.6278240000        0.0000060000
 C       -2.5096620000       -0.5999040000        0.0000560000
 C       -2.1958570000        0.7922650000        0.0000310000
 C       -0.7815560000        1.2581030000        0.0001800000
 C       -3.8579600000       -1.0164070000        0.0000430000
 C       -4.8680510000       -0.0432100000       -0.0001280000
 C       -3.2344380000        1.7472650000       -0.0000980000
 C       -4.5646190000        1.3018310000       -0.0002090000
 O       -1.6527260000       -2.8209520000       -0.0000800000
 O       -0.4670660000        2.4295100000        0.0003990000
 O       -4.1761860000       -2.3167520000        0.0001640000
 H       -5.1361260000       -2.4026690000        0.0002540000
 O       -2.9631280000        3.0578300000       -0.0001380000
 H       -3.7925140000        3.5486960000       -0.0002790000
 S        4.3122080000        0.1928380000       -0.0000490000
 O        4.4900080000        1.1663540000        1.1328340000
 O        4.4899280000        1.1664000000       -1.1329000000
 O        5.1594080000       -0.9800910000       -0.0000870000
 H       -5.9149360000       -0.3623150000       -0.0002120000
 H       -5.3731300000        2.0394520000       -0.0003650000

