%nproc=8
%mem=18000mb
#P PBE1PBE DEF2TZVPP OPT FREQ SCF(tight) INT(ultrafine)

 14-dihydroxy-6-sulfonate-910-aq_a_gn

-1 1
 C        2.3480880000       -1.6364770000       -0.0380920000
 C        2.6475690000       -0.2700790000       -0.0396780000
 C        1.0268620000       -2.0627190000       -0.0554940000
 C       -0.0174250000       -1.1296880000       -0.0721840000
 C        0.2841250000        0.2431220000       -0.0889270000
 C        1.6164030000        0.6656080000       -0.0806900000
 H        3.1847410000       -2.3395910000       -0.0389190000
 H        0.7650720000       -3.1231130000       -0.0603830000
 H        1.8524450000        1.7308660000       -0.1186870000
 C       -1.4096270000       -1.6228960000       -0.0923140000
 C       -2.5114110000       -0.6048540000       -0.0228420000
 C       -2.2133120000        0.7836980000       -0.0421400000
 C       -0.7911880000        1.2620940000       -0.1412010000
 C       -3.8536380000       -1.0357740000        0.0695470000
 C       -4.8695030000       -0.0775680000        0.1450980000
 C       -3.2600820000        1.7294250000        0.0340400000
 C       -4.5794070000        1.2742850000        0.1283710000
 O       -1.6522190000       -2.8144070000       -0.1532260000
 O       -0.5308640000        2.4426550000       -0.2546680000
 O       -4.1700510000       -2.3446210000        0.0930630000
 H       -5.1267160000       -2.4134710000        0.1794350000
 O       -3.0103420000        3.0514510000        0.0250790000
 H       -3.8516500000        3.5121350000        0.1106630000
 S        4.3779570000        0.2717020000        0.0729070000
 O        4.5661360000        0.4262950000        1.5281880000
 O        4.4060960000        1.5316940000       -0.6923570000
 O        5.1321690000       -0.8455140000       -0.5296680000
 H       -5.9107830000       -0.4088930000        0.2193560000
 H       -5.3925330000        2.0053500000        0.1897740000

