%nproc=8
%mem=18000mb
#P PBE1PBE DEF2TZVPP OPT(calcall) FREQ SCF(tight) INT(ultrafine)

 indole_n_rd

-1 2
 C        2.1531500000       -0.6848900000        0.0000100000
 C        2.1536300000        0.7250600000        0.0000000000
 C        0.9664200000        1.4451100000        0.0000000000
 C       -0.2552300000        0.7483800000        0.0000100000
 C       -0.2289000000       -0.6763500000        0.0000100000
 C        0.9640700000       -1.4050300000        0.0000100000
 H        0.9800300000        2.5319700000        0.0000000000
 H        3.0993600000       -1.2187000000        0.0000100000
 H        3.1030000000        1.2534700000        0.0000000000
 C       -1.6353100000        1.1418800000        0.0000100000
 H       -2.0261100000        2.1497700000        0.0000200000
 C       -2.3844400000       -0.0074100000        0.0000000000
 N       -1.5423900000       -1.1061800000        0.0000000000
 H       -3.4568100000       -0.1431900000        0.0000000000
 H       -1.8432100000       -2.0689600000        0.0000000000
 H        0.9665000000       -2.4921100000        0.0000200000

