%nproc=8
%mem=18000mb
#P PBE1PBE DEF2TZVPP OPT FREQ SCF(tight) INT(ultrafine)

 i47di-1256-met-3_phenyl_n_gn

 0 1
 C        3.1534110000       -0.7347480000        0.0881330000
 C        2.2360030000       -1.7394490000        0.1039110000
 C        2.7542600000        0.7073090000       -0.0040070000
 C        1.3189800000        0.9612760000       -0.0659590000
 C        0.3547610000       -0.0853810000       -0.0621590000
 C        0.7562130000       -1.4892350000        0.0078880000
 O        3.5994450000        1.5907330000       -0.0134980000
 O       -0.0260720000       -2.4252780000       -0.0200380000
 C        0.6376130000        2.1662370000       -0.0975460000
 N       -0.7042740000        1.8732790000       -0.1026270000
 C       -0.9048260000        0.5046360000       -0.0725330000
 C        1.1612900000        3.5549430000       -0.1327710000
 H        2.2540870000        3.5129860000       -0.0507770000
 H        0.7612090000        4.1665900000        0.6922680000
 H        0.9055410000        4.0659760000       -1.0766950000
 C       -1.7325120000        2.8821160000       -0.2170120000
 H       -1.4310320000        3.6392490000       -0.9536850000
 H       -1.9158810000        3.3866090000        0.7448910000
 H       -2.6669420000        2.4186900000       -0.5532130000
 C        4.6222830000       -1.0046200000        0.1630250000
 H        4.8815670000       -1.5419400000        1.0899550000
 H        5.1790820000       -0.0597480000        0.1329700000
 H        4.9538630000       -1.6412500000       -0.6735720000
 C        2.6465570000       -3.1743000000        0.1980160000
 H        3.2222980000       -3.3627380000        1.1188930000
 H        3.2983630000       -3.4582150000       -0.6445480000
 H        1.7596630000       -3.8199000000        0.1931910000
 C       -2.2455360000       -0.0973630000       -0.0201370000
 C       -2.6012600000       -1.1218070000       -0.9096750000
 C       -3.1893460000        0.3252290000        0.9304530000
 C       -4.4574560000       -0.2482430000        0.9790500000
 C       -4.8027000000       -1.2563390000        0.0804660000
 C       -3.8693620000       -1.6920760000       -0.8598700000
 H       -1.8691170000       -1.4755890000       -1.6359720000
 H       -2.9177110000        1.0931970000        1.6589080000
 H       -5.1757100000        0.0874230000        1.7310770000
 H       -5.7967640000       -1.7085520000        0.1183960000
 H       -4.1298410000       -2.4884900000       -1.5610500000

