%nproc=8
%mem=18000mb
#P PBE1PBE DEF2TZVPP OPT FREQ SCF(tight) INT(ultrafine)

 1-ethoxy-7a_n_gn

 0 1
 C        3.5112540000       -2.0214330000        0.1521590000
 C        4.1640870000       -0.8742450000        0.5950500000
 C        2.1989930000       -1.9478330000       -0.3105190000
 C        1.5291190000       -0.7205410000       -0.3719940000
 C        2.2008310000        0.4404770000        0.0556830000
 C        3.4985280000        0.3516680000        0.5554760000
 H        4.0185150000       -2.9886890000        0.1761360000
 H        1.6790060000       -2.8523430000       -0.6386290000
 H        5.1879920000       -0.9267480000        0.9705520000
 H        3.9962730000        1.2619420000        0.8992080000
 N        0.2233140000       -0.6445750000       -0.8339450000
 C       -0.6765220000        0.3290080000       -0.4322640000
 C       -0.2548320000        1.6075950000       -0.0400790000
 S        1.4588590000        2.0350460000       -0.1619230000
 C       -2.0516640000        0.0300930000       -0.4167120000
 C       -2.9828580000        1.0109930000       -0.0784490000
 C       -2.5514640000        2.2772240000        0.3109380000
 C       -1.1881470000        2.5667510000        0.3517660000
 H       -4.0448410000        0.7652250000       -0.1295520000
 H       -0.8390480000        3.5531320000        0.6658160000
 H       -3.2794910000        3.0441300000        0.5831440000
 H       -0.2129030000       -1.5033040000       -1.1465960000
 O       -2.4266360000       -1.2280070000       -0.8036270000
 C       -2.6033080000       -2.1794470000        0.2429780000
 C       -3.9382900000       -2.0672440000        0.9463040000
 H       -1.7741470000       -2.0918850000        0.9694080000
 H       -2.5154820000       -3.1625170000       -0.2456350000
 H       -4.0312100000       -1.1179820000        1.4935670000
 H       -4.0461990000       -2.8857360000        1.6746730000
 H       -4.7646800000       -2.1382750000        0.2232840000

