%nproc=8
%mem=18000mb
#P PBE1PBE DEF2TZVPP OPT FREQ SCF(tight) INT(ultrafine)

 dimethylsulfide_n_gn

 0 1
 S       -0.2255100000        0.1790700000        0.5622200000
 C        0.2179600000        1.4105100000       -0.7071100000
 C        0.2218300000        1.1178600000        2.0597000000
 H       -0.0075000000        0.9571500000       -1.6753000000
 H       -0.3763000000        2.3214100000       -0.5908900000
 H       -0.3719000000        2.0331300000        2.1382000000
 H       -0.0018600000        0.4720400000        2.9121600000
 H        1.2885400000        1.3598300000        2.0637700000
 H        1.2845900000        1.6487500000       -0.6627900000

