%nproc=8
%mem=18000mb
#P PBE1PBE DEF2TZVPP OPT FREQ SCF(tight) INT(ultrafine)

 3z_2c_ox

 3 2
 C        0.0000000000       -5.6896600000       -0.8235150000
 C        0.0000000000       -4.9865180000        0.3718910000
 C        0.0000000000       -3.5757750000        0.3771810000
 N        0.0000000000       -2.8903500000       -0.8355110000
 C        0.0000000000       -4.9703090000       -2.0284300000
 C        0.0000000000       -3.5898210000       -2.0115540000
 C        0.0000000000       -2.8200280000        1.5610550000
 C        0.0000000000       -1.4194570000        1.5431500000
 C        0.0000000000       -0.7375970000        0.2680300000
 C        0.0000000000       -1.5073810000       -0.8662940000
 C        0.0000000000       -0.6931440000        2.7613360000
 C        0.0000000000        0.6931440000        2.7613360000
 C        0.0000000000        1.4194570000        1.5431500000
 C        0.0000000000        0.7375970000        0.2680300000
 C        0.0000000000        2.8200280000        1.5610550000
 C        0.0000000000        1.5073810000       -0.8662940000
 N        0.0000000000        2.8903500000       -0.8355110000
 C        0.0000000000        3.5757750000        0.3771810000
 C        0.0000000000        4.9865180000        0.3718910000
 C        0.0000000000        5.6896600000       -0.8235150000
 C        0.0000000000        3.5898210000       -2.0115540000
 C        0.0000000000        4.9703090000       -2.0284300000
 H        0.0000000000       -6.7836710000       -0.8272300000
 H        0.0000000000       -5.5083060000        1.3327220000
 H        0.0000000000       -5.4824410000       -2.9950500000
 H        0.0000000000       -2.9978750000       -2.9294960000
 H        0.0000000000       -1.2357170000        3.7115240000
 H        0.0000000000        1.2357170000        3.7115240000
 H        0.0000000000       -3.3577770000        2.5131610000
 H        0.0000000000       -1.0913620000       -1.8741600000
 H        0.0000000000        1.0913620000       -1.8741600000
 H        0.0000000000        3.3577770000        2.5131610000
 H        0.0000000000        5.5083060000        1.3327220000
 H        0.0000000000        6.7836710000       -0.8272300000
 H        0.0000000000        2.9978750000       -2.9294960000
 H        0.0000000000        5.4824410000       -2.9950500000

