%nproc=8
%mem=18000mb
#P PBE1PBE DEF2TZVPP OPT FREQ SCF(tight) INT(ultrafine)

 11-bis-2-oxopropyl-3l_2c_gn

 2 1
 N       -3.5055220000       -0.6902270000        0.0200700000
 C       -2.9304360000       -0.1449000000        1.1114090000
 C       -1.5520660000       -0.0956480000        1.2370920000
 C       -2.7459750000       -1.1804460000       -0.9822140000
 C       -1.3680010000       -1.1618310000       -0.9058820000
 C       -0.7380190000       -0.6035200000        0.2187960000
 C        0.7402530000       -0.5480330000        0.3200710000
 C        1.3829100000        0.5714370000        0.8602480000
 C        2.7656270000        0.6094040000        0.9290990000
 C        1.5420350000       -1.6118480000       -0.1256410000
 C        2.9157520000       -1.5266010000       -0.0218130000
 N        3.5074430000       -0.4350600000        0.5074690000
 H       -3.2744780000       -1.5861920000       -1.8469500000
 H       -0.7978910000       -1.5576970000       -1.7482210000
 H       -3.5958380000        0.2263600000        1.8906490000
 H       -1.1335010000        0.3272550000        2.1519940000
 H        3.5745160000       -2.3321230000       -0.3517980000
 H        1.1098650000       -2.5268510000       -0.5346940000
 H        0.8258680000        1.4449050000        1.2040590000
 H        3.3010930000        1.4661900000        1.3379530000
 C       -4.9543210000       -0.5940690000       -0.1224600000
 C       -5.3804810000        0.8968610000       -0.2132380000
 H       -5.4430630000       -1.0451950000        0.7564370000
 H       -5.2750120000       -1.1614080000       -1.0062590000
 C       -6.7696460000        1.1429740000       -0.6947440000
 H       -7.0726330000        2.1665860000       -0.4416990000
 H       -7.4821720000        0.4150140000       -0.2774910000
 H       -6.7944680000        1.0302220000       -1.7924030000
 O       -4.5938960000        1.7435480000        0.1146180000
 C        4.9594490000       -0.2932790000        0.4889730000
 C        5.3700100000        0.8322260000       -0.4997910000
 H        5.4189620000       -1.2540750000        0.2214040000
 H        5.3173760000       -0.0237670000        1.4959250000
 C        6.8132650000        0.8695700000       -0.8715510000
 H        7.4635880000        0.6654670000       -0.0071670000
 H        7.0556480000        1.8439060000       -1.3137540000
 H        7.0120150000        0.0839950000       -1.6208690000
 O        4.5282130000        1.5965310000       -0.8871210000

