%nproc=8
%mem=18000mb
#P PBE1PBE DEF2TZVPP OPT FREQ SCF(tight) INT(ultrafine)

 11-bis-2-oxopropyl-3l_2c_rd

 1 2
 N       -3.5459590000       -0.5424770000        0.3266350000
 C       -2.8505650000        0.3093760000        1.1353210000
 C       -1.4862680000        0.3224970000        1.1601610000
 C       -2.8507210000       -1.3714760000       -0.5056930000
 C       -1.4869540000       -1.3945750000       -0.5234480000
 C       -0.7145390000       -0.5379400000        0.3205860000
 C        0.7145400000       -0.5379390000        0.3205880000
 C        1.4862670000        0.3224960000        1.1601670000
 C        2.8505640000        0.3093780000        1.1353290000
 C        1.4869580000       -1.3945720000       -0.5234470000
 C        2.8507250000       -1.3714700000       -0.5056900000
 N        3.5459600000       -0.5424720000        0.3266420000
 H       -3.4475990000       -2.0194790000       -1.1489830000
 H       -1.0133140000       -2.0937120000       -1.2113210000
 H       -3.4457310000        0.9739600000        1.7616120000
 H       -1.0115910000        1.0263890000        1.8421410000
 H        3.4476050000       -2.0194710000       -1.1489800000
 H        1.0133200000       -2.0937070000       -1.2113220000
 H        1.0115880000        1.0263860000        1.8421490000
 H        3.4457280000        0.9739600000        1.7616240000
 C       -4.9876200000       -0.4565580000        0.2587540000
 C       -5.4595990000        0.8242880000       -0.4500640000
 H       -5.4139190000       -0.4666620000        1.2765650000
 H       -5.3839480000       -1.3465340000       -0.2513060000
 C       -6.9175040000        0.8780810000       -0.7944710000
 H       -7.2016590000        1.9087480000       -1.0393230000
 H       -7.5450530000        0.4920080000        0.0233290000
 H       -7.1047960000        0.2413360000       -1.6753450000
 O       -4.6754560000        1.7048830000       -0.6838470000
 C        4.9876210000       -0.4565530000        0.2587650000
 C        5.4596030000        0.8243010000       -0.4500360000
 H        5.3839500000       -1.3465240000       -0.2513030000
 H        5.4139170000       -0.4666650000        1.2765770000
 C        6.9174970000        0.8780720000       -0.7944940000
 H        7.5450690000        0.4920060000        0.0232920000
 H        7.2016550000        1.9087310000       -1.0393740000
 H        7.1047540000        0.2413080000       -1.6753630000
 O        4.6754530000        1.7048820000       -0.6838500000

