%nproc=8
%mem=18000mb
#P PBE1PBE DEF2TZVPP OPT FREQ SCF(tight) INT(ultrafine)

 11-bis-2-oxopropyl-3l_2c_ox

 3 2
 N        3.5181890000        0.5984690000        0.1094070000
 C        2.9209600000       -0.0042500000        1.1624570000
 C        1.5424350000       -0.0778000000        1.2503770000
 C        2.7748630000        1.1361730000       -0.8847840000
 C        1.3930430000        1.1024500000       -0.8374040000
 C        0.7411600000        0.4854570000        0.2428660000
 C       -0.7424460000        0.4339300000        0.3225310000
 C       -1.4037690000       -0.6975020000        0.8296190000
 C       -2.7852070000       -0.7218240000        0.8950780000
 C       -1.5339750000        1.5131040000       -0.1035380000
 C       -2.9119830000        1.4408710000       -0.0104320000
 N       -3.5185010000        0.3390380000        0.4879720000
 H        3.3120450000        1.5987980000       -1.7165120000
 H        0.8438250000        1.5426900000       -1.6726140000
 H        3.5697540000       -0.4120320000        1.9415730000
 H        1.1133500000       -0.5525310000        2.1356090000
 H       -3.5549050000        2.2685540000       -0.3201560000
 H       -1.0971130000        2.4385600000       -0.4853920000
 H       -0.8624100000       -1.5871460000        1.1591500000
 H       -3.3274570000       -1.5875350000        1.2834390000
 C        4.9776890000        0.6154180000        0.0247090000
 C        5.5862060000       -0.7744430000       -0.3056100000
 H        5.4097510000        0.9305270000        0.9902410000
 H        5.3039900000        1.3368710000       -0.7389310000
 C        7.0415870000       -0.8097200000       -0.6575610000
 H        7.4533540000       -1.8032110000       -0.4328980000
 H        7.5947170000       -0.0126660000       -0.1388940000
 H        7.1115550000       -0.6387970000       -1.7486090000
 O        4.8761910000       -1.7392800000       -0.2559030000
 C       -4.9779320000        0.2658760000        0.5402010000
 C       -5.5812540000       -0.6768770000       -0.5358260000
 H       -5.4115360000        1.2694910000        0.4186210000
 H       -5.3031540000       -0.1231670000        1.5205680000
 C       -7.0659330000       -0.6236230000       -0.7267100000
 H       -7.5778020000       -0.3712550000        0.2138420000
 H       -7.4210130000       -1.5776940000       -1.1398470000
 H       -7.2657280000        0.1757520000       -1.4653090000
 O       -4.8439050000       -1.3983700000       -1.1467680000

