%nproc=8
%mem=18000mb
#P PBE1PBE DEF2TZVPP OPT FREQ SCF(tight) INT(ultrafine)

 11-bicarboxymethyl-3l_2c_rd

 1 2
 N        3.5442760000        0.5207110000        0.3208130000
 C        2.8497890000       -0.3406240000        1.1207490000
 C        1.4859600000       -0.3553100000        1.1439630000
 C        2.8502790000        1.3618570000       -0.4999870000
 C        1.4863600000        1.3843570000       -0.5174940000
 C        0.7146160000        0.5163760000        0.3152070000
 C       -0.7146150000        0.5163760000        0.3152070000
 C       -1.4859610000       -0.3553100000        1.1439610000
 C       -1.4863580000        1.3843590000       -0.5174940000
 C       -2.8502780000        1.3618590000       -0.4999870000
 C       -2.8497890000       -0.3406240000        1.1207460000
 N       -3.5442750000        0.5207130000        0.3208110000
 H       -3.4475640000        2.0182180000       -1.1343560000
 H       -1.0126780000        2.0920790000       -1.1964390000
 H       -1.0112580000       -1.0681270000        1.8166290000
 H       -3.4459710000       -1.0138940000        1.7371620000
 H        1.0126800000        2.0920760000       -1.1964400000
 H        3.4475660000        2.0182140000       -1.1343560000
 H        3.4459700000       -1.0138940000        1.7371650000
 H        1.0112570000       -1.0681250000        1.8166320000
 C        4.9879320000        0.4559750000        0.2694310000
 C        5.4698250000       -0.7878070000       -0.4663220000
 H        5.4077540000        0.4444340000        1.2883120000
 H        5.3858280000        1.3542290000       -0.2217710000
 O        4.7569520000       -1.6938750000       -0.7902700000
 O        6.7789360000       -0.7237450000       -0.6626130000
 C       -4.9879320000        0.4559770000        0.2694270000
 C       -5.4698240000       -0.7878000000       -0.4663360000
 H       -5.3858280000        1.3542330000       -0.2217690000
 H       -5.4077540000        0.4444280000        1.2883080000
 O       -6.7789400000       -0.7237500000       -0.6626000000
 O       -4.7569530000       -1.6938740000       -0.7902740000
 H        7.0646920000       -1.5399180000       -1.1054210000
 H       -7.0646970000       -1.5399290000       -1.1053960000

