%nproc=8
%mem=18000mb
#P PBE1PBE DEF2TZVPP OPT FREQ SCF(tight) INT(ultrafine)

 11-bicarboxymethyl-3l_2c_gn

 2 1
 N       -3.4389420000        0.0387670000       -0.7278460000
 C       -2.8708920000       -1.0593850000       -0.1896000000
 C       -1.5169330000       -1.0885050000        0.0950370000
 C       -2.7039220000        1.1409990000       -0.9785020000
 C       -1.3504270000        1.1705960000       -0.7024520000
 C       -0.7258860000        0.0402380000       -0.1531680000
 C        0.7258890000        0.0402320000        0.1531770000
 C        1.5169330000       -1.0885050000       -0.0950670000
 C        1.3504320000        1.1705700000        0.7024970000
 C        2.7039270000        1.1409620000        0.9785450000
 C        2.8708930000       -1.0593960000        0.1895700000
 N        3.4389450000        0.0387370000        0.7278520000
 H        3.2278900000        1.9956750000        1.4109890000
 H        0.7927950000        2.0768600000        0.9457980000
 H        1.1040980000       -1.9949080000       -0.5415800000
 H        3.5238940000       -1.9105140000       -0.0054720000
 H       -0.7927880000        2.0768930000       -0.9457220000
 H       -3.2278830000        1.9957270000       -1.4109170000
 H       -3.5238940000       -1.9105090000        0.0054120000
 H       -1.1040990000       -1.9949250000        0.5415190000
 C       -4.8865600000        0.0484080000       -0.9491540000
 C       -5.6189100000       -0.0803360000        0.3908310000
 H       -5.1684040000       -0.7967050000       -1.5971580000
 H       -5.1768570000        0.9720570000       -1.4655850000
 O       -5.0687160000       -0.4297550000        1.3966780000
 O       -6.8867690000        0.2127230000        0.2326080000
 C        4.8865640000        0.0483700000        0.9491540000
 C        5.6189040000       -0.0803110000       -0.3908440000
 H        5.1684130000       -0.7967750000        1.5971150000
 H        5.1768620000        0.9719940000        1.4656290000
 O        6.8867650000        0.2127350000       -0.2326150000
 O        5.0687060000       -0.4297080000       -1.3966960000
 H       -7.3686930000        0.0904950000        1.0702250000
 H        7.3686850000        0.0905280000       -1.0702380000

