%nproc=8
%mem=18000mb
#P PBE1PBE DEF2TZVPP OPT FREQ SCF(tight) INT(ultrafine)

 methoxatine_n_ox

 1 2
 C        0.6004780000        2.5771100000        0.0724670000
 C       -0.9187060000        2.7754750000        0.1806420000
 C        1.1490380000        1.1685800000        0.0106960000
 C        0.3331350000       -0.0095400000        0.0635820000
 C       -1.0821150000        0.2217970000        0.0318320000
 C       -1.6978890000        1.5289480000        0.0993630000
 O       -1.4046340000        3.8659320000        0.2922770000
 O        1.3315240000        3.5264850000        0.0429190000
 C        0.9939120000       -1.2810040000        0.1285460000
 C        2.3783560000       -1.3282990000       -0.0163240000
 C        2.5305770000        1.0749840000       -0.0846370000
 C        3.1545720000       -0.1701450000       -0.1599650000
 H        2.8801860000       -2.3007960000       -0.0116560000
 H        3.1253760000        1.9922420000       -0.1073360000
 C        4.6615340000       -0.2093900000       -0.2437860000
 C        0.2962320000       -2.6042150000        0.3384590000
 C       -3.0603290000        1.3596340000        0.0312430000
 C       -3.2752050000       -0.0418380000       -0.0991330000
 N       -2.0883120000       -0.6820680000       -0.0941760000
 C       -4.5881490000       -0.7307310000       -0.2352510000
 O       -5.6163760000       -0.1170600000       -0.2261560000
 O       -4.4343600000       -2.0396390000       -0.3580150000
 H       -5.3058280000       -2.4623550000       -0.4448480000
 O       -0.7864880000       -2.8770230000       -0.1222130000
 O        0.9530110000       -3.5082260000        1.0380740000
 H        1.7288370000       -3.1513420000        1.4911480000
 O        5.3078560000        0.6438770000        0.2851510000
 O        5.2108310000       -1.2432780000       -0.8756720000
 H        4.5810060000       -1.7203640000       -1.4309500000
 H       -3.8371040000        2.1229310000        0.0557600000
 H       -1.8978320000       -1.7025850000       -0.2102030000

