%nproc=8
%mem=18000mb
#P PBE1PBE DEF2TZVPP OPT FREQ SCF(tight) INT(ultrafine)

 3-methoxy-3d_2c_rd

 1 2
 C        4.0738440000       -1.3045660000       -0.0426350000
 C        3.0746470000       -2.2366730000        0.3313760000
 C        3.6897740000       -0.0207880000       -0.2707960000
 N        2.3903140000        0.4194470000       -0.2044750000
 C        1.7735000000       -1.8164210000        0.3859880000
 C        1.3583920000       -0.4841690000        0.0835490000
 C       -0.0696620000       -0.2628190000        0.0363420000
 N       -0.7318880000        0.9125950000        0.3518730000
 C       -0.9109320000       -1.3498460000       -0.3222190000
 C       -2.2811090000       -1.2784260000       -0.3311710000
 C       -2.9105720000       -0.0605680000        0.0356820000
 C       -2.0913770000        1.0030520000        0.3471420000
 C        2.3037460000        1.8841770000       -0.3384230000
 C        0.9358140000        2.5003110000       -0.4621710000
 H        2.9124320000        2.1629540000       -1.2110000000
 H        2.7984140000        2.3165280000        0.5493650000
 C        0.0155100000        2.1150580000        0.6805790000
 H        0.4552070000        2.2580650000       -1.4233990000
 H        1.0894130000        3.5899620000       -0.4589180000
 H       -0.7133780000        2.9068850000        0.8873460000
 H        0.5823670000        1.9452120000        1.6138510000
 H       -0.4427790000       -2.2710590000       -0.6651290000
 H       -2.8627800000       -2.1423440000       -0.6530680000
 H       -2.5240640000        1.9702630000        0.6010820000
 H        3.3347610000       -3.2613690000        0.6019990000
 H        5.1266380000       -1.5762800000       -0.1192150000
 H        1.0127660000       -2.5165760000        0.7272920000
 H        4.4188230000        0.7533030000       -0.5148320000
 O       -4.2222060000        0.1547210000        0.0767020000
 C       -5.1144880000       -0.8941760000       -0.2384320000
 H       -6.1231970000       -0.4851550000       -0.1112130000
 H       -4.9859690000       -1.7504130000        0.4438340000
 H       -4.9925120000       -1.2269190000       -1.2822680000

