%nproc=8
%mem=18000mb
#P PBE1PBE DEF2TZVPP OPT FREQ SCF(tight) INT(ultrafine)

 3-methoxy-3d_2c_ox

 3 2
 C       -4.1533890000       -0.9104660000       -0.0753440000
 C       -3.3441400000       -1.9414770000       -0.5321320000
 C       -3.5546160000        0.2479680000        0.4337650000
 N       -2.2227970000        0.4011210000        0.4593660000
 C       -1.9519610000       -1.7821830000       -0.4823910000
 C       -1.3957590000       -0.5922210000       -0.0070830000
 C        0.0685850000       -0.4229380000       -0.0057040000
 N        0.6480980000        0.7440110000       -0.4676910000
 C        0.9082240000       -1.4787820000        0.4197700000
 C        2.2825080000       -1.3636040000        0.4301510000
 C        2.8506290000       -0.1412310000       -0.0240300000
 C        1.9666040000        0.8966820000       -0.4816030000
 C       -1.6335750000        1.6170530000        1.0726150000
 C       -1.0175110000        2.5493670000        0.0382170000
 H       -0.8974070000        1.2717970000        1.8156770000
 H       -2.4226300000        2.1282160000        1.6398420000
 C       -0.2211250000        1.8203550000       -1.0338660000
 H       -0.3924650000        3.2800630000        0.5761850000
 H       -1.7899450000        3.1368770000       -0.4840590000
 H        0.4247130000        2.5093230000       -1.5941440000
 H       -0.8703450000        1.3209330000       -1.7702790000
 H        0.4476170000       -2.3971460000        0.7944390000
 H        2.9002750000       -2.1912170000        0.7919200000
 H        2.3874370000        1.8303330000       -0.8734230000
 H       -3.7783000000       -2.8675230000       -0.9232340000
 H       -5.2455070000       -0.9861170000       -0.0812540000
 H       -1.3035410000       -2.5781150000       -0.8581620000
 H       -4.1515120000        1.0642400000        0.8528790000
 O        4.0940900000        0.1745440000       -0.0993030000
 C        5.2477220000       -0.6102360000        0.2506270000
 H        5.8159740000        0.0082220000        0.9686010000
 H        5.8485000000       -0.6784290000       -0.6750450000
 H        4.9841310000       -1.5934600000        0.6548100000

