%nproc=8
%mem=18000mb
#P PBE1PBE DEF2TZVPP OPT FREQ SCF(tight) INT(ultrafine)

 p-methoxyaniline_n_ox

 1 2
 C        0.0772700000       -0.0434400000       -0.3367100000
 N        0.0263200000       -0.0295700000       -1.7478700000
 C        0.0711500000        1.1452900000        0.3997900000
 H        0.0870900000        2.1009300000       -0.1202000000
 C        0.0404800000        1.1333600000        1.7972800000
 H        0.0391400000        2.0781400000        2.3301300000
 C        0.0144700000       -0.0820300000        2.4856700000
 O       -0.0155300000       -0.2096100000        3.8594000000
 C        0.0214200000       -1.2781900000        1.7576700000
 H        0.0038000000       -2.2204100000        2.2974300000
 C        0.0505500000       -1.2580900000        0.3698000000
 H        0.0493500000       -2.1983100000       -0.1777100000
 C       -0.0336100000        1.0021300000        4.6158700000
 H       -0.0635800000        0.6944100000        5.6621900000
 H       -0.9224900000        1.6031900000        4.3824600000
 H        0.8698800000        1.5989900000        4.4329500000
 H        0.4349800000        0.8062500000       -2.1543100000
 H        0.4406100000       -0.8547300000       -2.1701700000

