%nproc=8
%mem=18000mb
#P PBE1PBE DEF2TZVPP OPT FREQ SCF(tight) INT(ultrafine)

 231112-tetramethyl-3d_2c_gn

 2 1
 C        3.5354120000       -0.1405870000       -0.1778160000
 C        2.8782620000       -1.2598910000        0.3877790000
 C        2.7471000000        0.9058300000       -0.6402720000
 N        1.4009120000        0.8976570000       -0.5717140000
 C        1.4761960000       -1.2356360000        0.4511660000
 C        0.7422310000       -0.1594740000       -0.0234960000
 C       -0.7422320000       -0.1594730000        0.0234910000
 N       -1.4009110000        0.8976570000        0.5717130000
 C       -1.4761980000       -1.2356290000       -0.4511810000
 C       -2.8782650000       -1.2598810000       -0.3877960000
 C       -3.5354130000       -0.1405800000        0.1778080000
 C       -2.7470980000        0.9058330000        0.6402690000
 C        0.6278930000        2.0357030000       -1.1054110000
 C        0.0000020000        2.8769130000        0.0000030000
 H       -0.1370310000        1.6172980000       -1.7767700000
 H        1.2984770000        2.6401670000       -1.7284930000
 C       -0.6278900000        2.0357000000        1.1054140000
 H       -0.7474150000        3.5363280000       -0.4678390000
 H        0.7474190000        3.5363260000        0.4678460000
 H       -1.2984730000        2.6401630000        1.7284980000
 H        0.1370340000        1.6172920000        1.7767700000
 H       -0.9422110000       -2.0751320000       -0.9010700000
 H       -3.1941630000        1.7909660000        1.0982740000
 H        0.9422070000       -2.0751420000        0.9010470000
 C       -3.6480800000       -2.4221630000       -0.9038760000
 H       -2.9984880000       -3.2048430000       -1.3139380000
 H       -4.3515690000       -2.1027000000       -1.6906530000
 H       -4.2655230000       -2.8625420000       -0.1032790000
 C       -5.0214810000       -0.0685180000        0.2892410000
 H       -5.4085540000       -0.9049420000        0.8930300000
 H       -5.4926320000       -0.1493410000       -0.7034110000
 H       -5.3566260000        0.8687270000        0.7511270000
 C        5.0214810000       -0.0685180000       -0.2892300000
 H        5.4926130000       -0.1492980000        0.7034350000
 H        5.3566270000        0.8687120000       -0.7511450000
 H        5.4085750000       -0.9049620000       -0.8929770000
 C        3.6480770000       -2.4221620000        0.9038830000
 H        4.2657920000       -2.8623630000        0.1034020000
 H        2.9984710000       -3.2049660000        1.3136860000
 H        4.3513140000       -2.1027110000        1.6908950000
 H        3.1941660000        1.7909640000       -1.0982730000

