%nproc=8
%mem=18000mb
#P PBE1PBE DEF2TZVPP OPT FREQ SCF(tight) INT(ultrafine)

 6-hydroxy-3c_2c_ox

 3 2
 C        0.5118860000        1.8512320000        0.4576720000
 C       -2.5107930000       -2.1807600000        0.1756050000
 C       -1.1237720000       -2.0314470000        0.1582640000
 C        2.7423660000        0.9323870000        0.1467880000
 N        1.4228680000        0.7214760000        0.1729580000
 H        3.0883640000        1.9626060000        0.2971570000
 C       -3.3051950000       -1.0453480000        0.0366240000
 C        0.9036290000       -0.5502430000        0.0137990000
 C       -0.5286970000       -0.7425580000        0.0182770000
 C        3.6652950000       -0.1256430000       -0.0527760000
 C       -2.6775590000        0.2262320000       -0.1186170000
 H       -4.4015310000       -1.0975090000        0.0349800000
 C        1.8059610000       -1.6313300000       -0.1732740000
 C        3.1869830000       -1.4213150000       -0.2131470000
 N       -1.3552250000        0.3496350000       -0.1117480000
 H        4.7375180000        0.1072230000       -0.0714390000
 C       -0.7390780000        1.7561920000       -0.3945300000
 H       -3.2502000000        1.1532970000       -0.2625130000
 O       -1.6535890000        2.7088270000       -0.2006010000
 H       -0.4940070000        1.7118090000       -1.4723370000
 H       -1.6559710000        3.1297180000        0.6760660000
 H        1.0304030000        2.7913660000        0.2186140000
 H        0.2756730000        1.8448920000        1.5374790000
 H       -2.9605430000       -3.1732910000        0.2959530000
 H       -0.4961240000       -2.9165850000        0.2874210000
 H        3.8721630000       -2.2626400000       -0.3702370000
 H        1.4233150000       -2.6436820000       -0.3229190000

