%nproc=8
%mem=18000mb
#P PBE1PBE DEF2TZVPP OPT FREQ SCF(tight) INT(ultrafine)

 14-nq-2-sulfonate_a_ox

 0 2
 C        3.6750980000       -1.5233540000       -0.0046380000
 C        2.3037450000       -1.7612510000       -0.0149750000
 C        1.4116040000       -0.6869490000       -0.0094560000
 C        1.9008060000        0.6318530000        0.0028160000
 C        4.1616250000       -0.2135700000        0.0082570000
 C        3.2779290000        0.8618440000        0.0108180000
 C       -0.0472120000       -0.9657640000       -0.0233840000
 C       -0.9389090000        0.2286180000        0.0056150000
 C       -0.4869310000        1.4907430000        0.0007570000
 C        0.9710120000        1.7913300000        0.0024930000
 H        4.3724580000       -2.3643030000       -0.0070830000
 H        5.2389530000       -0.0322320000        0.0156720000
 H        1.8971090000       -2.7747550000       -0.0268470000
 H        3.6306280000        1.8954050000        0.0186250000
 H       -1.1654610000        2.3482650000       -0.0001400000
 O       -0.5092490000       -2.0840500000       -0.0700670000
 O        1.3530960000        2.9415430000        0.0060740000
 S       -2.6877700000       -0.0943990000        0.0708130000
 O       -2.9762190000       -0.7866290000        1.3067700000
 O       -3.3769160000        1.1971160000       -0.1779420000
 O       -3.0334580000       -0.8533540000       -1.1902160000

