%nproc=8
%mem=18000mb
#P PBE1PBE DEF2TZVPP OPT FREQ SCF(tight) INT(ultrafine)

 14-nq-2-sulfonate_a_gn

-1 1
 C       -3.7043250000       -1.4859070000        0.0003620000
 C       -2.3361480000       -1.7398330000        0.0001950000
 C       -1.4248260000       -0.6811750000       -0.0001110000
 C       -1.8968910000        0.6382840000       -0.0002330000
 C       -4.1734830000       -0.1685950000        0.0002280000
 C       -3.2707830000        0.8899820000       -0.0000700000
 C        0.0487180000       -0.9885920000       -0.0003700000
 C        0.9693280000        0.1821480000       -0.0002310000
 C        0.4923800000        1.4456090000       -0.0003480000
 C       -0.9345650000        1.7824370000       -0.0005100000
 H       -4.4138230000       -2.3180360000        0.0005920000
 H       -5.2490670000        0.0286160000        0.0003600000
 H       -1.9339820000       -2.7556500000        0.0002720000
 H       -3.5966770000        1.9328110000       -0.0001720000
 H        1.2107720000        2.2706310000       -0.0003290000
 O        0.4203870000       -2.1404400000        0.0004690000
 O       -1.3363960000        2.9349490000       -0.0004850000
 S        2.7703140000       -0.0918470000        0.0001070000
 O        2.9850540000       -0.8423990000       -1.2479290000
 O        3.3267650000        1.2747390000        0.0009860000
 O        2.9843550000       -0.8437180000        1.2474710000

