%nproc=8
%mem=18000mb
#P PBE1PBE DEF2TZVPP OPT FREQ SCF(tight) INT(ultrafine)

 14-nq-2-ch2ococh3_n_ox

 1 2
 C       -4.4583630000        0.3201690000        0.3371420000
 C       -4.2313360000       -1.0609840000        0.2808010000
 C       -3.4014510000        1.2168160000        0.1910790000
 C       -2.1068140000        0.7229900000        0.0272400000
 C       -2.9436510000       -1.5574540000        0.0909330000
 C       -1.8824180000       -0.6614410000       -0.0607330000
 C       -0.9756580000        1.6859900000       -0.0759290000
 C        0.3927670000        1.1111920000       -0.2321120000
 C       -0.5291960000       -1.2033800000       -0.3385080000
 C        0.6155170000       -0.2178930000       -0.2623490000
 H       -5.4686430000        0.6996780000        0.5084270000
 H       -3.5563400000        2.2973190000        0.2349380000
 H       -5.0701490000       -1.7555520000        0.3697020000
 H       -2.7480660000       -2.6299900000        0.0230710000
 H        1.1980600000        1.8384600000       -0.3575300000
 O       -1.1311790000        2.8806110000       -0.1004140000
 O       -0.3030900000       -2.3643880000       -0.5634030000
 C        1.9452260000       -0.8712040000       -0.1969340000
 O        2.9740980000        0.0104880000       -0.4953090000
 H        1.9085770000       -1.7285530000       -0.9072010000
 H        2.1193820000       -1.3372890000        0.7981930000
 C        4.0857330000       -0.0600650000        0.3146090000
 O        4.1043050000       -0.7733640000        1.2748130000
 C        5.1776480000        0.8220560000       -0.1814290000
 H        4.7907550000        1.8316450000       -0.3797410000
 H        5.5585550000        0.4228540000       -1.1339220000
 H        5.9867750000        0.8539080000        0.5557140000

