%nproc=8
%mem=18000mb
#P PBE1PBE DEF2TZVPP OPT FREQ SCF(tight) INT(ultrafine)

 14-nq-2-hydroxymethyl_n_rd

-1 2
 C        3.1572400000       -1.2212480000       -0.0001260000
 C        3.4603260000        0.1555920000       -0.0001410000
 C        1.8373460000       -1.6373110000       -0.0000010000
 C        2.4350830000        1.0860850000       -0.0000320000
 H        3.9664540000       -1.9588600000       -0.0002080000
 H        4.5042450000        0.4857080000       -0.0002370000
 C        0.7819220000       -0.7040780000        0.0001110000
 C        1.0871600000        0.6825010000        0.0000930000
 H        1.5596700000       -2.6949010000        0.0000260000
 H        2.6226190000        2.1633920000       -0.0000350000
 C       -0.6055200000       -1.1820840000        0.0002680000
 C       -1.6222130000       -0.1554280000        0.0000890000
 C       -1.3210160000        1.1906570000        0.0000760000
 C        0.0238740000        1.7049770000        0.0002200000
 O       -0.8974500000       -2.4028450000       -0.0000290000
 O        0.2903760000        2.9265680000       -0.0000270000
 H       -2.1295970000        1.9257320000       -0.0000380000
 C       -3.0290990000       -0.6677180000       -0.0000390000
 O       -3.9686490000        0.3830710000       -0.0002550000
 H       -3.1545900000       -1.3329290000        0.8800440000
 H       -3.1543720000       -1.3330940000       -0.8800280000
 H       -4.8392570000       -0.0210730000       -0.0001410000

