%nproc=8
%mem=18000mb
#P PBE1PBE DEF2TZVPP OPT FREQ SCF(tight) INT(ultrafine)

 1-methoxy-7a_n_ox

 1 2
 C       -3.6599570000        1.6949750000       -0.0000010000
 C       -4.2012580000        0.3970760000       -0.0000010000
 C       -2.2924330000        1.8804900000       -0.0000010000
 C       -1.4273230000        0.7685620000       -0.0000010000
 C       -1.9744300000       -0.5394220000        0.0000000000
 C       -3.3672720000       -0.7078710000        0.0000000000
 H       -4.3228900000        2.5624470000       -0.0000020000
 H       -1.8663810000        2.8869260000       -0.0000020000
 H       -5.2838950000        0.2564880000       -0.0000010000
 H       -3.7872400000       -1.7166720000        0.0000010000
 N       -0.0750160000        0.9680440000       -0.0000010000
 C        0.9015840000        0.0204870000        0.0000000000
 C        0.6283580000       -1.3656500000        0.0000010000
 S       -0.9972270000       -1.9766240000        0.0000010000
 C        2.2537220000        0.4776860000        0.0000010000
 C        3.2839380000       -0.4479810000        0.0000020000
 C        2.9885540000       -1.8211320000        0.0000020000
 C        1.6834110000       -2.2864260000        0.0000020000
 H        4.3232650000       -0.1197880000        0.0000020000
 H        1.4739320000       -3.3578130000        0.0000030000
 H        0.2726160000        1.9273010000       -0.0000010000
 H        3.8117300000       -2.5386310000        0.0000030000
 O        2.3749770000        1.8074890000        0.0000000000
 C        3.6656960000        2.3953710000       -0.0000040000
 H        3.5099410000        3.4797890000       -0.0000080000
 H        4.2271530000        2.1063630000       -0.9022660000
 H        4.2271560000        2.1063700000        0.9022580000

