%nproc=8
%mem=18000mb
#P PBE1PBE DEF2TZVPP OPT FREQ SCF(tight) INT(ultrafine)

 1-methoxy-7a_n_rd

-1 2
 C        3.7336870000        1.4931080000       -0.2756620000
 C        4.2022220000        0.1615580000       -0.1781520000
 C        2.3689220000        1.7513550000       -0.2218940000
 C        1.4201080000        0.7226770000       -0.0744070000
 C        1.9023910000       -0.6249180000        0.0776410000
 C        3.2754200000       -0.8653110000        0.0031950000
 H        4.4357670000        2.3229530000       -0.3985800000
 H        2.0057940000        2.7831620000       -0.3065820000
 H        5.2689960000       -0.0654430000       -0.2529170000
 H        3.6200230000       -1.9006190000        0.1071480000
 N        0.0710490000        1.0002070000       -0.0756600000
 C       -0.9670530000        0.0928080000       -0.1225430000
 C       -0.7358200000       -1.3258780000       -0.0456640000
 S        0.8050510000       -1.9033490000        0.6032500000
 C       -2.2862500000        0.5421070000       -0.2890540000
 C       -3.3592910000       -0.3308980000       -0.4418840000
 C       -3.1139790000       -1.7310350000       -0.4248330000
 C       -1.8187250000       -2.1965940000       -0.2162000000
 H       -4.3598950000        0.0812190000       -0.5928140000
 H       -1.6264070000       -3.2747500000       -0.1694050000
 H       -0.2066940000        1.9552490000       -0.2605840000
 H       -3.9312130000       -2.4372040000       -0.5950080000
 O       -2.4839030000        1.9179810000       -0.3202000000
 C       -2.8997240000        2.4484720000        0.9070560000
 H       -3.0067270000        3.5384790000        0.7849740000
 H       -2.1655820000        2.2504290000        1.7110850000
 H       -3.8724390000        2.0301040000        1.2263110000

