%nproc=8
%mem=18000mb
#P PBE1PBE DEF2TZVPP OPT FREQ SCF(tight) INT(ultrafine)

 1-carbamylmethyl-3q_2c_rd

 1 2
 N        2.4390110000        0.3396370000       -0.6125370000
 C        1.7990040000       -0.8559850000       -0.7641160000
 C        0.4456750000       -0.9660010000       -0.6231210000
 C        1.7072010000        1.4402770000       -0.2732430000
 C        0.3535000000        1.3828020000       -0.1152290000
 C       -0.3655470000        0.1592470000       -0.2839040000
 C       -1.7825900000        0.0691890000       -0.1215420000
 C       -2.5013300000       -1.1565110000       -0.2770090000
 C       -3.8551780000       -1.2164870000       -0.1126510000
 N       -4.5931000000       -0.1129340000        0.2023980000
 C       -2.5975850000        1.1955990000        0.2098530000
 C       -3.9492670000        1.0793960000        0.3619920000
 H        2.4285820000       -1.7129010000       -1.0004300000
 H        0.0136760000       -1.9544410000       -0.7720790000
 H        2.2647590000        2.3686280000       -0.1420590000
 H       -0.1535640000        2.3099430000        0.1485040000
 H       -1.9925710000       -2.0851410000       -0.5321740000
 H       -4.4102150000       -2.1487340000       -0.2271680000
 H       -4.5778200000        1.9343360000        0.6154910000
 H       -2.1682700000        2.1869580000        0.3489530000
 C       -6.0241590000       -0.2202830000        0.4399120000
 H       -6.4423480000       -1.0222320000       -0.1811350000
 H       -6.5155490000        0.7223040000        0.1680450000
 H       -6.2303240000       -0.4410460000        1.4989590000
 C        3.8819790000        0.3976670000       -0.6914960000
 C        4.5287830000       -0.3248710000        0.5043760000
 H        4.1934230000        1.4499050000       -0.7471940000
 H        4.2208650000       -0.0913180000       -1.6197760000
 N        5.8263130000       -0.0239080000        0.7055840000
 O        3.8958000000       -1.1228090000        1.1571820000
 H        6.3303910000        0.6553640000        0.1529900000
 H        6.3240770000       -0.5129530000        1.4405810000

