%nproc=8
%mem=18000mb
#P PBE1PBE DEF2TZVPP OPT(calcall) FREQ SCF(tight) INT(ultrafine)

 1-carbamylmethyl-3q_2c_gn

 2 1
 N        2.4340230000        0.1247400000       -0.7392270000
 C        1.8322800000       -1.0370130000       -0.4127830000
 C        0.4593940000       -1.0951200000       -0.2320840000
 C        1.7170680000        1.2604110000       -0.8660050000
 C        0.3488430000        1.2612130000       -0.6841260000
 C       -0.3112950000        0.0650320000       -0.3566990000
 C       -1.7792820000        0.0330190000       -0.1453510000
 C       -2.5557260000       -1.0419150000       -0.5978370000
 C       -3.9232800000       -1.0459620000       -0.3817750000
 N       -4.5272440000       -0.0325470000        0.2661730000
 C       -2.4394390000        1.0766020000        0.5219620000
 C       -3.8062960000        1.0148970000        0.7158060000
 H        2.4683910000       -1.9159960000       -0.3156150000
 H        0.0179450000       -2.0550730000        0.0413990000
 H        2.2696780000        2.1665400000       -1.1213860000
 H       -0.1911230000        2.1994360000       -0.8234370000
 H       -2.1175600000       -1.8783930000       -1.1455780000
 H       -4.5625970000       -1.8608670000       -0.7272860000
 H       -4.3569410000        1.7994640000        1.2399210000
 H       -1.8985430000        1.9354390000        0.9239680000
 C       -5.9818800000       -0.0537660000        0.4989670000
 H       -6.4096700000       -0.9509800000        0.0393400000
 H       -6.4343170000        0.8397940000        0.0485240000
 H       -6.1753660000       -0.0675140000        1.5802710000
 C        3.8926470000        0.1516890000       -0.7962640000
 C        4.4420660000       -0.1650120000        0.6204250000
 H        4.2192880000        1.1293580000       -1.1732650000
 H        4.2410150000       -0.6209280000       -1.4994150000
 N        5.7165500000        0.1789460000        0.8190990000
 O        3.7198740000       -0.7175620000        1.4218660000
 H        6.2888780000        0.6398380000        0.1230810000
 H        6.1480280000       -0.0620420000        1.7068240000

