%nproc=8
%mem=18000mb
#P PBE1PBE DEF2TZVPP OPT FREQ SCF(tight) INT(ultrafine)

 mitomycinC_n_ox

 1 2
 C       -3.2001850000       -1.5226820000       -0.0359270000
 C       -3.7308410000       -0.2481360000        0.1880420000
 C       -1.7425520000       -1.7834160000       -0.3276490000
 C       -0.8830880000       -0.6255650000       -0.2889740000
 C       -1.4115160000        0.6483830000        0.0029550000
 C       -2.8717030000        0.9277190000        0.1540460000
 O       -1.3786600000       -2.9170480000       -0.5838280000
 O       -3.2622510000        2.0750650000        0.2558460000
 N       -3.9200210000       -2.6327510000       -0.0397260000
 C       -5.1827180000       -0.0451940000        0.4434910000
 H       -5.7961680000       -0.4168680000       -0.3960310000
 H       -5.3961250000        1.0231430000        0.5723260000
 H       -5.5101550000       -0.5745880000        1.3552120000
 C        0.5620720000       -0.4828050000       -0.6473080000
 C        0.9041560000        0.9095950000       -0.0286910000
 N       -0.4565790000        1.5442910000        0.0375830000
 C       -0.4407010000        2.9883600000       -0.1565790000
 C        0.8412000000        3.1727170000       -0.9592840000
 H       -0.3843090000        3.5013800000        0.8163490000
 H       -1.3568260000        3.3025000000       -0.6706600000
 C        1.6570740000        1.9256100000       -0.8876130000
 N        2.0337750000        3.1161160000       -0.1520120000
 H        2.2508430000        1.5668700000       -1.7325000000
 H        0.8084380000        3.7782900000       -1.8700160000
 O        1.3063880000        0.7682810000        1.2774720000
 C        2.6618200000        0.9707440000        1.6661300000
 H        2.7783900000        1.9598310000        2.1280130000
 H        3.3503850000        0.8877230000        0.8137080000
 H        2.9060730000        0.1772690000        2.3843070000
 H        2.8238390000        3.5941830000       -0.5832990000
 H       -4.9181160000       -2.6413140000        0.1269080000
 H       -3.4284800000       -3.5037440000       -0.2365220000
 C        1.4721330000       -1.6149980000       -0.2092160000
 H        0.6095990000       -0.4031230000       -1.7529550000
 O        2.7665400000       -1.3316740000       -0.7008570000
 H        1.1063100000       -2.5655800000       -0.6259570000
 H        1.4956100000       -1.7014290000        0.8861560000
 C        3.8053520000       -1.7599370000        0.0782160000
 O        3.6620490000       -2.2399760000        1.1720470000
 N        4.9786230000       -1.5163020000       -0.5444530000
 H        4.9977280000       -1.2823490000       -1.5270730000
 H        5.8168300000       -1.8812450000       -0.1129810000

