%nproc=8
%mem=18000mb
#P PBE1PBE DEF2TZVPP OPT(calcall) FREQ SCF(tight) INT(ultrafine)

 1-benzyl-3q_2c_ox

 3 2
 N        1.4335780000       -0.8499530000        0.3779780000
 C        0.7813930000       -1.1657390000       -0.7658770000
 C       -0.5678630000       -0.9026400000       -0.9129650000
 C       -1.2908070000       -0.3028250000        0.1331320000
 C        0.7708670000       -0.2504070000        1.3950230000
 C       -0.5778610000        0.0382590000        1.2955370000
 C       -2.7539000000       -0.0632240000        0.0253580000
 C       -3.5897850000       -0.9882380000       -0.6141350000
 C       -4.9550150000       -0.7528360000       -0.6835460000
 N       -5.4952060000        0.3595150000       -0.1541360000
 C       -3.3482180000        1.0851650000        0.5714390000
 C       -4.7154440000        1.2709790000        0.4616930000
 H        1.3625570000       -1.6520480000       -1.5536530000
 H       -1.0421350000       -1.1723320000       -1.8593620000
 H       -1.0691810000        0.4890190000        2.1608710000
 H        1.3402550000       -0.0340630000        2.3026160000
 H       -3.2112300000       -1.9195140000       -1.0406620000
 H       -5.6399000000       -1.4565080000       -1.1624510000
 H       -5.2170520000        2.1548120000        0.8642260000
 H       -2.7648220000        1.8645730000        1.0658780000
 C       -6.9502350000        0.5981090000       -0.2364100000
 H       -7.4240980000       -0.2304870000       -0.7734330000
 H       -7.1306510000        1.5385610000       -0.7751440000
 H       -7.3621050000        0.6625050000        0.7803460000
 C        2.8412870000       -1.2496540000        0.5537470000
 C        3.9009920000       -0.2792250000        0.1198180000
 H        2.9933570000       -2.2065550000        0.0225530000
 H        2.9956660000       -1.4951010000        1.6198310000
 C        3.6511430000        0.9802130000       -0.4407340000
 C        5.2719770000       -0.7275060000        0.3163430000
 C        6.3388740000        0.0663000000       -0.0402870000
 C        6.0824940000        1.3276410000       -0.6022890000
 C        4.7237170000        1.7801720000       -0.8004390000
 H        4.5573500000        2.7683770000       -1.2407210000
 H        2.6331680000        1.3418230000       -0.5991050000
 H        5.4527280000       -1.7145080000        0.7559490000
 H        7.3662550000       -0.2760530000        0.1098220000
 H        6.9095420000        1.9833110000       -0.8969090000

