%nproc=8
%mem=18000mb
#P PBE1PBE DEF2TZVPP OPT FREQ SCF(tight) INT(ultrafine)

 1-benzyl-3q_2c_rd

 1 2
 N       -1.5008170000        1.0866300000       -0.4408200000
 C       -1.0449150000       -0.1388400000       -0.8267850000
 C        0.2721400000       -0.4831180000       -0.7189440000
 C        1.2423310000        0.4241720000       -0.1917340000
 C       -0.6128700000        1.9843980000        0.0682170000
 C        0.7150770000        1.6917530000        0.2027110000
 C        2.6261460000        0.0897270000       -0.0670450000
 C        3.1535600000       -1.1799540000       -0.4584680000
 C        4.4804860000       -1.4730600000       -0.3290180000
 N        5.3711390000       -0.5748940000        0.1831100000
 C        3.5968370000        0.9966180000        0.4610640000
 C        4.9131880000        0.6514220000        0.5683760000
 H       -1.7982650000       -0.8267730000       -1.2135500000
 H        0.5502460000       -1.4829170000       -1.0499490000
 H        1.3524740000        2.4673570000        0.6253510000
 H       -1.0229960000        2.9515940000        0.3629200000
 H        2.5133210000       -1.9588960000       -0.8705530000
 H        4.8902770000       -2.4395590000       -0.6260680000
 H        5.6597430000        1.3384990000        0.9694620000
 H        3.3185330000        1.9941210000        0.7987690000
 C        6.7897490000       -0.8902620000        0.2448840000
 H        6.9220210000       -1.9671170000        0.4083910000
 H        7.2515690000       -0.3522320000        1.0821450000
 H        7.2964620000       -0.6035870000       -0.6899540000
 C       -2.9150550000        1.4469480000       -0.6358950000
 C       -3.8710740000        0.3943000000       -0.1418260000
 H       -3.0801690000        1.6404960000       -1.7079960000
 H       -3.0714370000        2.3977880000       -0.1066080000
 C       -3.9210080000        0.0635250000        1.2185860000
 C       -4.7272080000       -0.2566830000       -1.0347090000
 C       -5.6229510000       -1.2235030000       -0.5770750000
 C       -5.6640640000       -1.5488850000        0.7764200000
 C       -4.8111100000       -0.9040250000        1.6742300000
 H       -4.8471540000       -1.1522730000        2.7374370000
 H       -3.2619300000        0.5699620000        1.9300630000
 H       -4.7027200000        0.0003640000       -2.0978460000
 H       -6.2918320000       -1.7216160000       -1.2824710000
 H       -6.3659500000       -2.3045510000        1.1365030000

