%nproc=8
%mem=18000mb
#P PBE1PBE DEF2TZVPP OPT FREQ SCF(tight) INT(ultrafine)

 11-bis-2-oxopropyl-22-dimethyl-3p_2c_rd

 1 2
 N       -3.5458490000       -0.1561580000       -0.6217850000
 C       -2.8439370000       -1.3111540000       -0.8339260000
 C       -1.4837500000       -1.3503420000       -0.8478550000
 C       -0.7149440000       -0.1699360000       -0.6196860000
 C       -2.8623340000        1.0133730000       -0.3741300000
 C       -1.4886260000        1.0041920000       -0.3862320000
 C        0.7149480000       -0.1699260000       -0.6196850000
 C        1.4837710000       -1.3503170000       -0.8478720000
 C        2.8439580000       -1.3111080000       -0.8339420000
 N        3.5458530000       -0.1561050000       -0.6217800000
 C        2.8623200000        1.0134120000       -0.3741080000
 C        1.4886120000        1.0042110000       -0.3862120000
 H       -3.4435450000       -2.2069250000       -1.0003730000
 H       -1.0143540000       -2.3149820000       -1.0351060000
 H       -1.0000460000        1.9582240000       -0.1947510000
 H        1.0143900000       -2.3149590000       -1.0351430000
 H        3.4435790000       -2.2068660000       -1.0004080000
 H        1.0000170000        1.9582320000       -0.1947140000
 C       -4.9863250000       -0.2393170000       -0.5086630000
 C       -5.4514380000       -0.3872060000        0.9483870000
 H       -5.4628920000        0.6513560000       -0.9451040000
 H       -5.3447770000       -1.0939020000       -1.1022260000
 C       -6.9060190000       -0.6979830000        1.1412210000
 H       -7.1803780000       -0.5428400000        2.1917380000
 H       -7.0897480000       -1.7536390000        0.8802560000
 H       -7.5450710000       -0.0874550000        0.4850760000
 O       -4.6645370000       -0.2544210000        1.8481180000
 C       -3.6394730000        2.2609450000       -0.1154120000
 H       -2.9531400000        3.0989810000        0.0528720000
 H       -4.2860420000        2.5261400000       -0.9673710000
 H       -4.2704450000        2.1573410000        0.7802110000
 C        4.9863290000       -0.2392460000       -0.5086610000
 C        5.4514540000       -0.3871590000        0.9483790000
 H        5.4628850000        0.6514470000       -0.9450750000
 H        5.3447980000       -1.0938080000       -1.1022490000
 C        6.9060040000       -0.6981020000        1.1411880000
 H        7.0894120000       -1.7539780000        0.8808740000
 H        7.1805420000       -0.5424200000        2.1915800000
 H        7.5451270000       -0.0881550000        0.4845800000
 O        4.6645650000       -0.2543950000        1.8481240000
 C        3.6394390000        2.2609920000       -0.1153710000
 H        4.2860020000        2.5262110000       -0.9673260000
 H        4.2704130000        2.1573830000        0.7802500000
 H        2.9530920000        3.0990140000        0.0529270000

