%nproc=8
%mem=18000mb
#P PBE1PBE DEF2TZVPP OPT FREQ SCF(tight) INT(ultrafine)

 11-bis-2-oxopropyl-22-dimethyl-3p_2c_gn

 2 1
 N       -3.5101790000        0.1571760000       -0.6307780000
 C       -2.9172300000       -0.8714820000       -1.2768230000
 C       -1.5496820000       -1.0208140000       -1.3069670000
 C       -0.7466040000       -0.0798850000       -0.6444550000
 C       -2.7769140000        1.0841390000        0.0423030000
 C       -1.3851190000        0.9694400000        0.0165780000
 C        0.7308240000       -0.2069340000       -0.6324110000
 C        1.3446860000       -1.4573680000       -0.4618000000
 C        2.7184470000       -1.5282310000       -0.4292270000
 N        3.4950020000       -0.4325630000       -0.5836490000
 C        2.9485790000        0.8017340000       -0.7515050000
 C        1.5561430000        0.9075880000       -0.7811190000
 H       -3.5827050000       -1.5758090000       -1.7788780000
 H       -1.1256910000       -1.8581930000       -1.8634400000
 H       -0.8089390000        1.7115950000        0.5714460000
 H        0.7686950000       -2.3727610000       -0.3169050000
 H        3.2406630000       -2.4738760000       -0.2741800000
 H        1.1306870000        1.8991460000       -0.9431620000
 C       -4.9680250000        0.1424560000       -0.5273690000
 C       -5.3950610000       -0.5245600000        0.8051290000
 H       -5.3654300000        1.1654450000       -0.5802210000
 H       -5.3829210000       -0.4061410000       -1.3847170000
 C       -6.8571830000       -0.7774710000        0.9654590000
 H       -7.0784440000       -1.0007770000        2.0165690000
 H       -7.1422490000       -1.6511980000        0.3546180000
 H       -7.4636100000        0.0721730000        0.6166340000
 O       -4.5469880000       -0.7998320000        1.6106740000
 C       -3.4522420000        2.1932890000        0.7684440000
 H       -2.7064400000        2.8552150000        1.2231840000
 H       -4.0744840000        2.8014600000        0.0923490000
 H       -4.0921060000        1.8026420000        1.5742620000
 C        4.9353180000       -0.5881550000       -0.3907530000
 C        5.3158360000       -0.2211790000        1.0664040000
 H        5.4863520000        0.0528470000       -1.0931160000
 H        5.2177590000       -1.6260500000       -0.6161680000
 C        6.7178150000       -0.5357480000        1.4697040000
 H        6.8047420000       -1.6199150000        1.6565560000
 H        6.9623130000       -0.0029010000        2.3970440000
 H        7.4411740000       -0.2849800000        0.6790260000
 O        4.4821810000        0.2786870000        1.7729520000
 C        3.8226470000        1.9928480000       -0.9277330000
 H        4.4894620000        1.8796910000       -1.7977260000
 H        4.4410290000        2.1633900000       -0.0336720000
 H        3.2114390000        2.8878530000       -1.0906700000

