%nproc=8
%mem=18000mb
#P PBE1PBE DEF2TZVPP OPT FREQ SCF(tight) INT(ultrafine)

 3d_2c_ox

 3 2
 C       -3.5066720000       -0.7861810000       -0.2439330000
 C       -2.7010630000       -1.9068920000       -0.3813220000
 C       -2.8960200000        0.4527080000        0.0616020000
 N       -1.5706800000        0.6216810000        0.2006030000
 C       -1.3287430000       -1.7416250000       -0.2038910000
 C       -0.7297410000       -0.4666410000        0.0563260000
 C        0.7352440000       -0.4649080000        0.0683300000
 N        1.5147280000        0.5652770000       -0.4187930000
 C        1.4027630000       -1.6334540000        0.5498570000
 C        2.7911400000       -1.7550200000        0.5222040000
 C        3.5258190000       -0.7264100000       -0.0542800000
 C        2.8407400000        0.4325250000       -0.5058850000
 C       -1.1995910000        2.0256610000        0.6281290000
 C        0.2435620000        2.4418570000        0.4625480000
 H       -1.5208330000        2.1204910000        1.6783080000
 H       -1.8473710000        2.6709490000        0.0181590000
 C        0.9105610000        1.8749610000       -0.7779860000
 H        0.8469010000        2.2128450000        1.3554490000
 H        0.2397940000        3.5428870000        0.3992290000
 H        1.7274070000        2.5175010000       -1.1302040000
 H        0.2291430000        1.7258320000       -1.6324490000
 H        0.8184410000       -2.4419140000        0.9960190000
 H        3.2803660000       -2.6483210000        0.9273480000
 H        4.6170610000       -0.7707100000       -0.1605870000
 H        3.3935520000        1.2738930000       -0.9401940000
 H       -3.1196670000       -2.8928830000       -0.6136120000
 H       -0.6870930000       -2.6155820000       -0.3343900000
 H       -4.5983730000       -0.8266730000       -0.3452400000
 H       -3.5156610000        1.3434890000        0.2192990000

