%nproc=8
%mem=18000mb
#P PBE1PBE DEF2TZVPP OPT FREQ SCF(tight) INT(ultrafine)

 22-dicyano-11-dimethyl-3p_2c_ox

 3 2
 N        3.5729700000       -0.5696000000        0.2339960000
 C        2.8669310000       -1.6629000000        0.5223640000
 C        1.4583150000       -1.6885960000        0.4307710000
 C        2.9102970000        0.5673520000       -0.1567410000
 C        1.5028590000        0.5974380000       -0.2474980000
 C        0.7455730000       -0.5453730000        0.0458610000
 H        1.0510080000        1.5377420000       -0.5759910000
 H        3.4271530000       -2.5507010000        0.8355970000
 H        0.9661860000       -2.6295270000        0.6945550000
 C       -0.7455720000       -0.5453740000       -0.0458410000
 C       -1.4583100000       -1.6885970000       -0.4307610000
 C       -2.8669260000       -1.6628990000       -0.5223710000
 C       -1.5028610000        0.5974350000        0.2475150000
 C       -2.9102980000        0.5673460000        0.1567530000
 N       -3.5729670000       -0.5696010000       -0.2340040000
 H       -1.0510120000        1.5377410000        0.5760070000
 H       -0.9661790000       -2.6295250000       -0.6945520000
 H       -3.4271440000       -2.5506970000       -0.8356210000
 C       -5.0530020000       -0.5735190000       -0.3298480000
 H       -5.4773240000       -0.3431090000        0.6594850000
 H       -5.3841450000       -1.5662890000       -0.6553540000
 H       -5.3673160000        0.1851590000       -1.0629620000
 C        5.0530050000       -0.5735170000        0.3298290000
 H        5.3841580000       -1.5663240000        0.6552140000
 H        5.3673160000        0.1850760000        1.0630330000
 H        5.4773220000       -0.3429860000       -0.6594770000
 C       -3.6650450000        1.7195460000        0.4716910000
 C        3.6650410000        1.7195480000       -0.4716930000
 N        4.2513930000        2.6957530000       -0.7399850000
 N       -4.2514040000        2.6957470000        0.7399770000

