%nproc=8
%mem=18000mb
#P PBE1PBE DEF2TZVPP OPT FREQ SCF(tight) INT(ultrafine)

 22-dicyano-11-dimethyl-3p_2c_gn

 2 1
 N       -3.5224780000       -0.5456380000       -0.2751530000
 C       -2.8182060000       -1.6353490000       -0.6242660000
 C       -1.4358960000       -1.6723330000       -0.5243570000
 C       -2.8772710000        0.5604270000        0.1877410000
 C       -1.4896160000        0.5784100000        0.2996350000
 C       -0.7406770000       -0.5501140000       -0.0576280000
 H       -1.0246160000        1.4837550000        0.6949250000
 H       -3.3909910000       -2.4882940000       -0.9947890000
 H       -0.9218710000       -2.5812720000       -0.8436590000
 C        0.7406770000       -0.5501160000        0.0576130000
 C        1.4358920000       -1.6723330000        0.5243520000
 C        2.8182020000       -1.6353520000        0.6242640000
 C        1.4896200000        0.5784050000       -0.2996540000
 C        2.8772750000        0.5604180000       -0.1877590000
 N        3.5224780000       -0.5456460000        0.2751410000
 H        1.0246230000        1.4837490000       -0.6949470000
 H        0.9218640000       -2.5812680000        0.8436620000
 H        3.3909840000       -2.4882950000        0.9947940000
 C        4.9930400000       -0.5410150000        0.3910320000
 H        5.4343960000       -0.3630540000       -0.5996630000
 H        5.3219590000       -1.5114970000        0.7767960000
 H        5.3003290000        0.2588870000        1.0792740000
 C       -4.9930430000       -0.5410200000       -0.3909960000
 H       -5.3219410000       -1.5113840000       -0.7770770000
 H       -5.3003870000        0.2590990000       -1.0789580000
 H       -5.4343710000       -0.3634060000        0.5997760000
 C        3.6598420000        1.6958310000       -0.5561480000
 C       -3.6598380000        1.6958330000        0.5561550000
 N       -4.2750180000        2.6294160000        0.8598290000
 N        4.2750200000        2.6294160000       -0.8598220000

