%nproc=8
%mem=18000mb
#P PBE1PBE DEF2TZVPP OPT FREQ SCF(tight) INT(ultrafine)

 14-dihydroxy-2-sulfonate-910-aq_a_gn

-1 1
 C       -5.3452910000       -0.0659260000       -0.0000910000
 C       -5.0407710000       -1.4320560000       -0.0000700000
 C       -4.3230040000        0.8749760000       -0.0000490000
 C       -2.9859120000        0.4621520000        0.0000200000
 C       -2.6795720000       -0.9103690000        0.0000440000
 C       -3.7157890000       -1.8505880000       -0.0000060000
 C       -1.9087360000        1.4803910000        0.0000470000
 C       -0.5467050000        1.0118910000        0.0000510000
 C       -0.2273230000       -0.3862170000        0.0000850000
 C       -1.2716330000       -1.3831420000        0.0001110000
 H       -3.4423770000       -2.9078190000        0.0000130000
 H       -5.8464250000       -2.1709690000       -0.0001050000
 H       -6.3884700000        0.2610020000       -0.0001430000
 H       -4.5238420000        1.9483620000       -0.0000680000
 C        1.1195690000       -0.8125410000        0.0000760000
 C        2.1615930000        0.1743470000       -0.0000220000
 C        1.8406690000        1.5075200000       -0.0000510000
 C        0.4964850000        1.9577630000       -0.0000000000
 H        2.6624140000        2.2281560000       -0.0001010000
 O       -1.0364620000       -2.6052490000       -0.0000560000
 O       -2.2019120000        2.6929500000       -0.0000970000
 O        1.4297590000       -2.0839100000        0.0001990000
 H        0.5646410000       -2.5817860000        0.0003490000
 O        0.2526490000        3.2567690000        0.0000090000
 H       -0.7452570000        3.3407860000        0.0001010000
 S        3.9262140000       -0.3012050000       -0.0000340000
 O        4.6218690000        0.9998880000        0.0000730000
 O        4.0581770000       -1.0720440000        1.2461460000
 O        4.0582220000       -1.0718620000       -1.2463210000

