%nproc=8
%mem=18000mb
#P PBE1PBE DEF2TZVPP OPT FREQ SCF(tight) INT(ultrafine)

 3l_2c_rd

 1 2
 N        0.0000000000        0.0000000000        3.5188960000
 C       -0.0000000000       -1.1830120000        2.8478930000
 C       -0.0000000000       -1.2082160000        1.4830390000
 C        0.0000000000        1.1830120000        2.8478930000
 C        0.0000000000        1.2082160000        1.4830390000
 C        0.0000000000        0.0000000000        0.7152310000
 C       -0.0000000000        0.0000000000       -0.7152310000
 C       -0.0000000000       -1.2082160000       -1.4830390000
 C        0.0000000000        1.2082160000       -1.4830390000
 C        0.0000000000        1.1830120000       -2.8478930000
 C       -0.0000000000       -1.1830120000       -2.8478930000
 N       -0.0000000000        0.0000000000       -3.5188960000
 H        0.0000000000        2.0894840000       -3.4544690000
 H        0.0000000000        2.1862490000       -1.0042320000
 H       -0.0000000000       -2.1862490000       -1.0042320000
 H       -0.0000000000       -2.0894840000       -3.4544690000
 H        0.0000000000        2.1862490000        1.0042320000
 H        0.0000000000        2.0894840000        3.4544690000
 H       -0.0000000000       -2.0894840000        3.4544690000
 H       -0.0000000000       -2.1862490000        1.0042320000
 H        0.0000000000        0.0000000000        4.5332850000
 H       -0.0000000000        0.0000000000       -4.5332850000

