%nproc=8
%mem=18000mb
#P PBE1PBE DEF2TZVPP OPT FREQ SCF(tight) INT(ultrafine)

 3l_2c_ox

 3 2
 N        0.0000000000        0.0000000000       -3.5420030000
 C       -0.3556100000       -1.1205700000       -2.8955650000
 C       -0.3530420000       -1.1469150000       -1.4797980000
 C        0.3556100000        1.1205700000       -2.8955650000
 C        0.3530420000        1.1469150000       -1.4797980000
 C        0.0000000000        0.0000000000       -0.7492850000
 C        0.0000000000        0.0000000000        0.7492850000
 C        0.3530420000       -1.1469150000        1.4797980000
 C       -0.3530420000        1.1469150000        1.4797980000
 C       -0.3556100000        1.1205700000        2.8955650000
 C        0.3556100000       -1.1205700000        2.8955650000
 N        0.0000000000        0.0000000000        3.5420030000
 H       -0.6388140000        1.9921450000        3.5004810000
 H       -0.6542740000        2.0851290000        1.0027190000
 H        0.6542740000       -2.0851290000        1.0027190000
 H        0.6388140000       -1.9921450000        3.5004810000
 H        0.6542740000        2.0851290000       -1.0027190000
 H        0.6388140000        1.9921450000       -3.5004810000
 H       -0.6388140000       -1.9921450000       -3.5004810000
 H       -0.6542740000       -2.0851290000       -1.0027190000
 H        0.0000000000        0.0000000000       -4.5742930000
 H        0.0000000000        0.0000000000        4.5742930000

