%nproc=8
%mem=18000mb
#P PBE1PBE DEF2TZVPP OPT FREQ SCF(tight) INT(ultrafine)

 3c_2c_ox

 3 2
 C       -3.5166920000       -0.3615300000        0.0329070000
 C       -2.8716890000       -1.5830210000        0.2011470000
 C       -1.4758210000       -1.6080940000        0.1774200000
 C       -2.7387300000        0.8140680000       -0.1520300000
 N       -1.4051910000        0.7783130000       -0.1559990000
 C       -0.7234250000       -0.4122740000        0.0025690000
 C        0.7234250000       -0.4122740000       -0.0025680000
 N        1.4051910000        0.7783130000        0.1559990000
 C       -0.6249740000        2.0123740000       -0.4209810000
 C        0.6249730000        2.0123740000        0.4209810000
 H       -1.2438000000        2.8848860000       -0.1663270000
 H       -0.4079230000        2.0503850000       -1.5029930000
 H        0.4079230000        2.0503840000        1.5029940000
 H        1.2438000000        2.8848860000        0.1663270000
 C        1.4758210000       -1.6080940000       -0.1774200000
 C        2.8716890000       -1.5830210000       -0.2011470000
 C        3.5166920000       -0.3615300000       -0.0329070000
 C        2.7387300000        0.8140680000        0.1520290000
 H       -4.6108740000       -0.2743640000        0.0351960000
 H       -3.2154210000        1.7904880000       -0.3072630000
 H        4.6108740000       -0.2743640000       -0.0351970000
 H        3.2154210000        1.7904890000        0.3072620000
 H       -3.4415970000       -2.5077810000        0.3501210000
 H       -0.9630210000       -2.5609430000        0.3301880000
 H        0.9630210000       -2.5609430000       -0.3301880000
 H        3.4415970000       -2.5077810000       -0.3501210000

