%nproc=8
%mem=18000mb
#P PBE1PBE DEF2TZVPP OPT FREQ SCF(tight) INT(ultrafine)

 3e_2c_rd

 1 2
 C       -3.5151370000       -0.7449880000        0.2116460000
 C       -2.8041130000       -1.9259930000        0.5426040000
 C       -1.4345340000       -1.9333220000        0.4295730000
 C       -2.8176110000        0.3238370000       -0.2709300000
 N       -1.4592040000        0.3041970000       -0.4274030000
 C       -0.7195260000       -0.7924040000       -0.0046620000
 H       -4.5982060000       -0.6783950000        0.3173900000
 H       -3.3137180000        1.2432260000       -0.5878270000
 H       -3.3315880000       -2.8059270000        0.9149390000
 H       -0.8628800000       -2.8052760000        0.7505910000
 C        0.7195260000       -0.7924040000        0.0046620000
 N        1.4592040000        0.3041970000        0.4274030000
 C       -0.8681120000        1.3906200000       -1.2251740000
 C       -0.6227250000        2.6721210000       -0.4387540000
 H       -1.5705520000        1.5874150000       -2.0473960000
 H        0.0509200000        1.0065850000       -1.6917840000
 C        0.8681120000        1.3906200000        1.2251740000
 C        0.6227250000        2.6721210000        0.4387540000
 H        1.5705520000        1.5874150000        2.0473960000
 H       -0.0509200000        1.0065850000        1.6917840000
 H       -1.5177070000        2.8790410000        0.1724550000
 H       -0.5563560000        3.5047260000       -1.1560400000
 H        1.5177070000        2.8790410000       -0.1724550000
 H        0.5563560000        3.5047260000        1.1560400000
 C        1.4345340000       -1.9333220000       -0.4295730000
 C        2.8041130000       -1.9259930000       -0.5426040000
 C        3.5151370000       -0.7449880000       -0.2116460000
 H        0.8628800000       -2.8052760000       -0.7505910000
 H        3.3315880000       -2.8059270000       -0.9149390000
 C        2.8176110000        0.3238370000        0.2709300000
 H        3.3137180000        1.2432260000        0.5878270000
 H        4.5982060000       -0.6783950000       -0.3173900000

