%nproc=8
%mem=18000mb
#P PBE1PBE DEF2TZVPP OPT FREQ SCF(tight) INT(ultrafine)

 dimethylamine_n_gn

 0 1
 N       -0.2024300000        1.2582300000       -0.6477800000
 H        0.9775400000        1.8570400000       -2.3619200000
 C       -0.0347100000        1.5093000000       -2.0820800000
 C        0.1719500000        2.4210700000        0.1622100000
 H       -0.2559500000        0.5941700000       -2.6398300000
 H       -0.5337000000        3.2358500000       -0.0361200000
 H       -0.7503200000        2.2779100000       -2.3955600000
 H        0.3867800000        0.4702300000       -0.3818700000
 H        0.1007200000        2.1632900000        1.2233300000
 H        1.1909900000        2.8007400000       -0.0409800000

