%nproc=8
%mem=18000mb
#P PBE1PBE DEF2TZVPP OPT FREQ SCF(tight) INT(ultrafine)

 11-bis-2-chloroethyl-3l_2c_ox

 3 2
 N       -3.5165880000       -0.7503340000       -0.0045410000
 C       -2.7547910000       -1.2337080000       -1.0101690000
 C       -1.3729460000       -1.1709720000       -0.9535750000
 C       -2.9385090000       -0.1833560000        1.0761540000
 C       -1.5600260000       -0.0858030000        1.1797090000
 C       -0.7410500000       -0.5943500000        0.1600020000
 C        0.7434970000       -0.5480140000        0.2705670000
 C        1.5345910000       -1.6329760000       -0.1404680000
 C        1.4017960000        0.5670190000        0.8112490000
 C        2.7816760000        0.5648150000        0.9366140000
 C        2.9096050000       -1.5851950000        0.0140810000
 N        3.5141310000       -0.5003600000        0.5458810000
 H        3.3225430000        1.4102700000        1.3684740000
 H        0.8607020000        1.4580270000        1.1376440000
 H        1.0979180000       -2.5481610000       -0.5469330000
 H        3.5493770000       -2.4264560000       -0.2655750000
 H       -1.1466740000        0.3524900000        2.0909850000
 H       -3.6021660000        0.1691060000        1.8693900000
 H       -3.2758920000       -1.6875790000       -1.8573170000
 H       -0.8080380000       -1.5712200000       -1.7985310000
 C       -4.9930130000       -0.8693620000       -0.0754780000
 C       -5.6890040000        0.2702110000       -0.7976170000
 H       -5.3714930000       -0.9774920000        0.9510900000
 H       -5.2291170000       -1.8052230000       -0.6045220000
Cl       -5.5855920000        1.8349770000        0.0189540000
 H       -6.7721080000        0.0504370000       -0.8899140000
 H       -5.3371790000        0.4412640000       -1.8333020000
 C        4.9858940000       -0.4913500000        0.7278610000
 C        5.7733990000       -0.0109660000       -0.4777520000
 H        5.3018540000       -1.5208750000        0.9553480000
 H        5.2114480000        0.1164650000        1.6157950000
Cl        5.5440780000        1.6958220000       -0.8783510000
 H        5.5754760000       -0.5738420000       -1.4102910000
 H        6.8595650000       -0.1319070000       -0.2890370000

