%nproc=8
%mem=18000mb
#P PBE1PBE DEF2TZVPP OPT FREQ SCF(tight) INT(ultrafine)

 2-chloro-7-methoxy-7a_n_ox

 1 2
 C       -3.3940710000       -1.3872210000       -0.0000020000
 C       -3.7518450000       -0.0156140000        0.0000040000
 C       -2.0661400000       -1.7547210000       -0.0000060000
 C       -1.0411000000       -0.7889600000       -0.0000040000
 C       -1.4034490000        0.5873820000        0.0000020000
 C       -2.7424160000        0.9564000000        0.0000060000
 H       -4.1602940000       -2.1624350000       -0.0000040000
 H       -1.7997320000       -2.8150100000       -0.0000110000
 H       -3.0380360000        2.0075920000        0.0000110000
 N        0.2646240000       -1.1906320000       -0.0000080000
 C        1.3874640000       -0.4038490000       -0.0000040000
 C        1.2924340000        1.0081360000        0.0000020000
 S       -0.2199410000        1.8613910000        0.0000040000
 C        2.6523320000       -1.0167510000       -0.0000070000
 C        3.7968240000       -0.2378200000       -0.0000030000
 C        3.7084200000        1.1682760000        0.0000030000
 C        2.4675520000        1.7758900000        0.0000050000
 H        2.3983020000        2.8664830000        0.0000100000
 H        4.6210040000        1.7661880000        0.0000050000
 H        0.4232930000       -2.1943810000       -0.0000130000
 H        2.7360810000       -2.1056770000       -0.0000110000
Cl        5.3362600000       -0.9858710000       -0.0000060000
 O       -4.9948340000        0.4304430000        0.0000080000
 C       -6.0903710000       -0.4669170000        0.0000090000
 H       -6.0870020000       -1.0979150000       -0.9029360000
 H       -6.9914850000        0.1561410000        0.0000150000
 H       -6.0869950000       -1.0979220000        0.9029480000

