%nproc=8
%mem=18000mb
#P PBE1PBE DEF2TZVPP OPT FREQ SCF(tight) INT(ultrafine)

 3-nitro-7a_n_gn

 0 1
 C       -4.6062800000        0.6702140000       -0.5188590000
 C       -4.5689080000       -0.7195760000       -0.5885710000
 C       -3.4616370000        1.3843220000       -0.1712760000
 C       -2.2732030000        0.7185130000        0.1432620000
 C       -2.2430660000       -0.6847840000        0.0871980000
 C       -3.3816640000       -1.3909020000       -0.2966110000
 H       -5.5276600000        1.2102680000       -0.7473370000
 H       -3.4861060000        2.4773370000       -0.1372880000
 H       -5.4586910000       -1.2857030000       -0.8708930000
 H       -3.3354110000       -2.4813280000       -0.3512010000
 N       -1.1331910000        1.4427330000        0.4895400000
 C        0.1595440000        1.0006150000        0.3121840000
 C        0.4484760000       -0.3815790000        0.2596720000
 S       -0.8076740000       -1.5729200000        0.6176900000
 C        1.2111330000        1.9206630000        0.1742910000
 C        2.5181910000        1.4925790000       -0.0064960000
 C        2.7727480000        0.1278740000       -0.0799760000
 C        1.7494920000       -0.8117580000        0.0393500000
 H        0.9910140000        2.9907550000        0.2135920000
 H        3.3445830000        2.1961490000       -0.1060070000
 H        1.9930070000       -1.8731860000       -0.0214960000
 H       -1.2507200000        2.4473590000        0.5111660000
 N        4.1406650000       -0.3359940000       -0.2889150000
 O        5.0082420000        0.5058000000       -0.3872150000
 O        4.3231940000       -1.5331980000       -0.3506550000

