%nproc=8
%mem=18000mb
#P PBE1PBE DEF2TZVPP OPT FREQ SCF(tight) INT(ultrafine)

 10-2-pyrrolidinylethyl-7b_n_gn

 0 1
 C        0.4069760000        3.3970470000       -1.1423850000
 C        1.5314650000        3.8598820000       -0.4645590000
 C        0.0494690000        2.0510050000       -1.0859980000
 C        0.7928410000        1.1411310000       -0.3209400000
 C        1.9239920000        1.6222610000        0.3647710000
 C        2.2974080000        2.9620400000        0.2770110000
 H       -0.1999710000        4.0858420000       -1.7347950000
 H       -0.8259910000        1.7087330000       -1.6392190000
 H        1.8164650000        4.9129380000       -0.5130450000
 H        3.1899360000        3.2983090000        0.8102150000
 N        0.4533350000       -0.2208610000       -0.2347510000
 C        1.4855770000       -1.1748700000       -0.2812800000
 C        2.6841560000       -0.9356810000        0.4178260000
 S        2.8119630000        0.5155290000        1.4184660000
 C        1.3818740000       -2.3618270000       -1.0207280000
 C        2.4153620000       -3.2973760000       -1.0218110000
 C        3.5924050000       -3.0524890000       -0.3203850000
 C        3.7287500000       -1.8575000000        0.3838920000
 H        0.4839520000       -2.5609670000       -1.6071920000
 H        2.2984050000       -4.2201140000       -1.5950690000
 H        4.6486840000       -1.6340450000        0.9296200000
 H        4.4063240000       -3.7804840000       -0.3265060000
 C       -0.9125160000       -0.6278960000       -0.4975320000
 C       -1.8915290000       -0.0781490000        0.5384200000
 H       -0.9640730000       -1.7208920000       -0.4302950000
 H       -1.2298090000       -0.3672950000       -1.5247470000
 N       -3.2295330000       -0.5627980000        0.3127300000
 C       -3.9497890000        0.0387520000       -0.7930410000
 C       -5.3853000000       -0.4682190000       -0.6199810000
 H       -3.5146530000       -0.2415240000       -1.7651990000
 H       -3.9226880000        1.1526300000       -0.7307230000
 H       -1.8523590000        1.0337910000        0.5685990000
 H       -1.5505380000       -0.4261900000        1.5263210000
 C       -5.4879780000       -0.8223060000        0.8795820000
 H       -5.5607160000       -1.3577380000       -1.2421490000
 H       -6.1178880000        0.2912230000       -0.9294610000
 C       -4.1216710000       -0.4396940000        1.4485210000
 H       -5.6670850000       -1.8995350000        1.0092930000
 H       -6.3052660000       -0.2924850000        1.3897900000
 H       -3.7949620000       -1.0872650000        2.2778280000
 H       -4.1447380000        0.6055400000        1.8371280000

