%nproc=8
%mem=18000mb
#P PBE1PBE DEF2TZVPP OPT FREQ SCF(tight) INT(ultrafine)

 10-2-pyrrolidinylethyl-7b_n_rd

-1 2
 C        0.9514490000        3.7064310000       -0.2455060000
 C        2.3564700000        3.8071030000       -0.1433690000
 C        0.3308820000        2.4623510000       -0.2366370000
 C        1.0598230000        1.2494940000       -0.1566610000
 C        2.4755620000        1.3781000000        0.0950810000
 C        3.0819460000        2.6318000000        0.0552180000
 H        0.3320110000        4.6062360000       -0.3119970000
 H       -0.7610040000        2.4490740000       -0.2764720000
 H        2.8628260000        4.7744560000       -0.1945620000
 H        4.1651220000        2.6747190000        0.2221860000
 N        0.4595360000       -0.0034230000       -0.3349910000
 C        1.1118080000       -1.2374110000       -0.2267770000
 C        2.5259610000       -1.3269510000        0.0463760000
 S        3.3908120000        0.0286000000        0.7638850000
 C        0.4341120000       -2.4715060000       -0.4010520000
 C        1.1027320000       -3.6887980000       -0.4561280000
 C        2.5056090000       -3.7442690000       -0.3133460000
 C        3.1801910000       -2.5535610000       -0.0393270000
 H       -0.6544030000       -2.4961360000       -0.4868120000
 H        0.5209140000       -4.6049310000       -0.5972140000
 H        4.2604800000       -2.5632950000        0.1488320000
 H        3.0496470000       -4.6885880000       -0.3964300000
 C       -0.9330930000       -0.0258380000       -0.7079890000
 C       -1.8765420000       -0.1292970000        0.4887210000
 H       -1.1194420000       -0.8765840000       -1.3790510000
 H       -1.1485320000        0.8772310000       -1.2961240000
 N       -3.2598170000       -0.2907770000        0.1028160000
 C       -3.8871500000        0.8530520000       -0.5233160000
 C       -5.3671490000        0.4634830000       -0.5952800000
 H       -3.4507290000        1.0666420000       -1.5108610000
 H       -3.7598930000        1.7741260000        0.0955850000
 H       -1.7339000000        0.7563990000        1.1498650000
 H       -1.5785520000       -1.0102350000        1.0795420000
 C       -5.5446200000       -0.5617100000        0.5467560000
 H       -5.5979430000        0.0031880000       -1.5674770000
 H       -6.0227420000        1.3407210000       -0.4876830000
 C       -4.1530000000       -0.6582290000        1.1773690000
 H       -5.8528680000       -1.5382580000        0.1445210000
 H       -6.3055240000       -0.2566590000        1.2809530000
 H       -3.9135580000       -1.6620290000        1.5640940000
 H       -4.0728690000        0.0502530000        2.0373560000

