%nproc=8
%mem=18000mb
#P PBE1PBE DEF2TZVPP OPT FREQ SCF(tight) INT(ultrafine)

 10-2-pyrrolidinylethyl-7b_n_ox

 1 2
 C       -0.7580490000        3.6149870000        0.8799470000
 C       -1.9063460000        3.8638180000        0.1185830000
 C       -0.2874580000        2.3231780000        1.0386970000
 C       -0.9492310000        1.2280350000        0.4454200000
 C       -2.1164480000        1.4917140000       -0.3103610000
 C       -2.5795070000        2.8056290000       -0.4678770000
 H       -0.2316250000        4.4399850000        1.3639680000
 H        0.5953180000        2.1586240000        1.6553080000
 H       -2.2785600000        4.8825780000       -0.0050180000
 H       -3.4841970000        2.9825900000       -1.0545750000
 N       -0.4491940000       -0.0688510000        0.5990320000
 C       -1.2600410000       -1.2023470000        0.4592700000
 C       -2.4435760000       -1.1798950000       -0.3146450000
 S       -2.9948190000        0.2450000000       -1.1467600000
 C       -0.9230840000       -2.4076800000        1.1085090000
 C       -1.6926430000       -3.5467810000        0.9491010000
 C       -2.8359750000       -3.5233690000        0.1410310000
 C       -3.2119680000       -2.3419730000       -0.4745480000
 H       -0.0644770000       -2.4444640000        1.7790010000
 H       -1.4108750000       -4.4611600000        1.4749580000
 H       -4.1187000000       -2.2991060000       -1.0828700000
 H       -3.4429640000       -4.4217950000        0.0141770000
 C        0.9766840000       -0.2330110000        0.7501960000
 C        1.7304650000        0.1462380000       -0.5761250000
 H        1.2012790000       -1.2772580000        0.9817100000
 H        1.3644650000        0.3759370000        1.5775740000
 N        3.1182300000       -0.0516680000       -0.4881800000
 C        4.0096650000        0.8675880000        0.1831310000
 C        5.3922800000        0.3521080000       -0.2017510000
 H        3.8741310000        0.8437730000        1.2866300000
 H        3.8201490000        1.9055410000       -0.1415940000
 H        1.4986090000        1.2028600000       -0.8018250000
 H        1.3114590000       -0.4696970000       -1.3880930000
 C        5.1754350000       -1.1581780000       -0.2911020000
 H        6.1702880000        0.6390840000        0.5186150000
 H        5.6795070000        0.7587400000       -1.1844300000
 C        3.7759040000       -1.2809890000       -0.8913550000
 H        5.1931400000       -1.6029020000        0.7169540000
 H        5.9384810000       -1.6733420000       -0.8902160000
 H        3.2364250000       -2.1748210000       -0.5283960000
 H        3.8053500000       -1.3559580000       -1.9964010000

