%nproc=8
%mem=18000mb
#P PBE1PBE DEF2TZVPP OPT(calcall) FREQ SCF(tight) INT(ultrafine)

 28-dimethyl-2-8-phenanthrolinium_2c_ox

 3 2
 C        1.0377780000       -3.4845480000        0.0000000000
 C       -0.3035320000       -3.1274260000        0.0000000000
 C       -0.6583960000       -1.7712250000        0.0000000000
 C        0.3676810000       -0.7866050000        0.0000000000
 N        1.9883130000       -2.5426950000        0.0000000000
 C        1.6789710000       -1.2275040000        0.0000000000
 C       -2.0225610000       -1.3836000000        0.0000000000
 C       -2.3778580000       -0.0268820000        0.0000000000
 C       -1.3869970000        0.9640990000        0.0000000000
 C       -0.0000000000        0.6261580000        0.0000000000
 H        1.3629190000       -4.5182970000        0.0000000000
 H       -1.0558650000       -3.9087490000        0.0000000000
 H        2.5327700000       -0.5624690000        0.0000000000
 H       -2.8009160000       -2.1411690000        0.0000000000
 H       -3.4293910000        0.2457390000        0.0000000000
 C       -1.7770540000        2.3264500000        0.0000000000
 N       -0.8806300000        3.2972090000        0.0000000000
 C        0.9002810000        1.6867810000        0.0000000000
 C        0.4447110000        2.9920560000        0.0000000000
 H        1.9734770000        1.5486490000        0.0000000000
 H        1.1267900000        3.8356790000        0.0000000000
 H       -2.8233400000        2.6137100000        0.0000000000
 C        3.4170940000       -2.9322460000        0.0000000000
 H        3.4921090000       -4.0160650000        0.0000000000
 H        3.8906610000       -2.5260620000        0.8950570000
 H        3.8906610000       -2.5260620000       -0.8950570000
 C       -1.2843070000        4.7254230000        0.0000000000
 H       -2.3691560000        4.7898030000        0.0000000000
 H       -0.8796850000        5.1990620000       -0.8948820000
 H       -0.8796850000        5.1990620000        0.8948820000

