%nproc=8
%mem=18000mb
#P PBE1PBE DEF2TZVPP OPT FREQ SCF(tight) INT(ultrafine)

 3aa_2c_rd

 1 2
 C        2.6611880000        5.0582490000        0.0000000000
 C        1.3412690000        4.7300370000        0.0000000000
 N        0.9194620000        3.4211900000        0.0000000000
 C        1.8389240000        2.3669870000        0.0000000000
 C        3.6327220000        4.0172650000        0.0000000000
 C        3.2257940000        2.7160220000        0.0000000000
 C       -0.4327650000        3.1351790000        0.0000000000
 C       -0.9105170000        1.8497980000        0.0000000000
 C       -0.0000000000        0.7346390000        0.0000000000
 C        1.3798520000        1.0602160000        0.0000000000
 C       -2.3348250000        1.6068970000        0.0000000000
 C       -2.8293130000        0.3476900000       -0.0000000000
 C       -1.9520700000       -0.7967660000       -0.0000000000
 C       -0.5241970000       -0.5867350000       -0.0000000000
 C       -2.4441630000       -2.0841950000       -0.0000000000
 C        0.2853040000       -1.7321190000       -0.0000000000
 N       -0.2222760000       -2.9956110000       -0.0000000000
 C       -1.5972890000       -3.2168840000       -0.0000000000
 C       -2.0738060000       -4.5407280000       -0.0000000000
 C       -1.2137550000       -5.6177410000       -0.0000000000
 C        0.6352920000       -4.0788690000       -0.0000000000
 C        0.1715910000       -5.3644440000       -0.0000000000
 H        2.9515630000        6.1089150000        0.0000000000
 H        0.5444630000        5.4747620000        0.0000000000
 H        4.6964610000        4.2628690000        0.0000000000
 H        3.9477080000        1.8980070000        0.0000000000
 H       -3.0118220000        2.4645770000        0.0000000000
 H       -3.9078830000        0.1757600000       -0.0000000000
 H       -1.0962480000        4.0000200000        0.0000000000
 H        2.1451750000        0.2847280000        0.0000000000
 H        1.3721270000       -1.6811120000       -0.0000000000
 H       -3.5206340000       -2.2621160000       -0.0000000000
 H       -3.1558300000       -4.6819820000       -0.0000000000
 H       -1.5945720000       -6.6398790000       -0.0000000000
 H        1.6965200000       -3.8312790000       -0.0000000000
 H        0.8972570000       -6.1793080000       -0.0000000000

