%nproc=8
%mem=18000mb
#P PBE1PBE DEF2TZVPP OPT FREQ SCF(tight) INT(ultrafine)

 3aa_2c_ox

 3 2
 C        2.2550750000        5.2819860000        0.0000000000
 C        0.9555270000        4.8525390000        0.0000000000
 N        0.6536870000        3.5024570000        0.0000000000
 C        1.6684290000        2.5446560000        0.0000000000
 C        3.3019110000        4.3380110000        0.0000000000
 C        3.0003890000        2.9839280000        0.0000000000
 C       -0.6497950000        3.1095590000       -0.0000000000
 C       -1.0184310000        1.7644030000       -0.0000000000
 C       -0.0000000000        0.7418770000        0.0000000000
 C        1.3094620000        1.1699280000        0.0000000000
 C       -2.4005530000        1.4339400000       -0.0000000000
 C       -2.8094890000        0.1084950000       -0.0000000000
 C       -1.8582220000       -0.9413630000       -0.0000000000
 C       -0.4399600000       -0.6611480000       -0.0000000000
 C       -2.2820330000       -2.2794320000       -0.0000000000
 C        0.4237550000       -1.7267120000        0.0000000000
 N       -0.0070370000       -3.0404980000       -0.0000000000
 C       -1.3673920000       -3.3443470000       -0.0000000000
 C       -1.7709350000       -4.6967820000       -0.0000000000
 C       -0.8302460000       -5.7170610000       -0.0000000000
 C        0.9152500000       -4.0508570000        0.0000000000
 C        0.5308570000       -5.3780670000       -0.0000000000
 H        2.4587650000        6.3563930000        0.0000000000
 H        0.1019710000        5.5346520000        0.0000000000
 H        4.3440740000        4.6712780000        0.0000000000
 H        3.7974830000        2.2369460000        0.0000000000
 H       -3.1515390000        2.2301140000       -0.0000000000
 H       -3.8774290000       -0.1290590000       -0.0000000000
 H       -1.3962020000        3.9086330000       -0.0000000000
 H        2.1478440000        0.4713220000        0.0000000000
 H        1.5085390000       -1.6147430000        0.0000000000
 H       -3.3490910000       -2.5186750000       -0.0000000000
 H       -2.8417690000       -4.9180770000       -0.0000000000
 H       -1.1441990000       -6.7651280000       -0.0000000000
 H        1.9655890000       -3.7504490000        0.0000000000
 H        1.3078240000       -6.1482470000        0.0000000000

