%nproc=8
%mem=18000mb
#P PBE1PBE DEF2TZVPP OPT FREQ SCF(tight) INT(ultrafine)

 6-methyl-3b_2c_gn

 2 1
 C       -3.0215580000       -2.0864390000        0.0000000000
 C       -3.4038950000       -0.7398100000        0.0000000000
 C       -1.6830350000       -2.3993420000        0.0000000000
 C       -2.4285430000        0.2469260000        0.0000000000
 C       -1.0717750000       -0.0912630000        0.0000000000
 N       -0.7320140000       -1.4210890000        0.0000000000
 C       -0.0000000000        0.8961520000        0.0000000000
 N        1.3137720000        0.4736150000        0.0000000000
 C        0.6093680000       -1.7947590000        0.0000000000
 C        1.6253430000       -0.9090070000        0.0000000000
 C       -0.2624900000        2.2683040000        0.0000000000
 C        0.7701680000        3.1949480000        0.0000000000
 C        2.3301970000        1.3826860000        0.0000000000
 C        2.0902240000        2.7379190000        0.0000000000
 H       -3.7587270000       -2.8928680000        0.0000000000
 H       -1.3131860000       -3.4265410000        0.0000000000
 H       -4.4613990000       -0.4628790000        0.0000000000
 H       -2.7319190000        1.2926520000        0.0000000000
 H        0.8039090000       -2.8669180000        0.0000000000
 H       -1.2921760000        2.6221270000        0.0000000000
 H        0.5482180000        4.2653500000        0.0000000000
 H        3.3411230000        0.9800670000        0.0000000000
 H        2.9380300000        3.4270070000        0.0000000000
 C        3.0455700000       -1.3502020000        0.0000000000
 H        3.0913280000       -2.4460800000        0.0000000000
 H        3.5825170000       -0.9981410000        0.8960250000
 H        3.5825170000       -0.9981410000       -0.8960250000

