%nproc=8
%mem=18000mb
#P PBE1PBE DEF2TZVPP OPT FREQ SCF(tight) INT(ultrafine)

 11-bis-12-dichloroethyl-3l_2c_rd

 1 2
 N        3.5322800000       -0.2501780000       -0.1545450000
 C        2.8386780000       -0.2259840000        1.0274540000
 C        1.4788790000       -0.1290230000        1.0484810000
 C        2.8399010000       -0.1987970000       -1.3371010000
 C        1.4809820000       -0.1016500000       -1.3592300000
 C        0.7130990000       -0.0534240000       -0.1550530000
 C       -0.7130810000        0.0533810000       -0.1550590000
 C       -1.4788380000        0.1294380000        1.0484590000
 C       -2.8386380000        0.2263950000        1.0274220000
 N       -3.5322630000        0.2501440000       -0.1545740000
 C       -1.4809860000        0.1011670000       -1.3592400000
 C       -2.8399030000        0.1983290000       -1.3371220000
 H        3.4429450000       -0.2421300000       -2.2445260000
 H        3.4371810000       -0.2979710000        1.9353320000
 H        1.0020980000       -0.1264840000        2.0276990000
 H        1.0073000000       -0.0572090000       -2.3389800000
 H       -3.4429630000        0.2413350000       -2.2445520000
 H       -1.0073220000        0.0563660000       -2.3389820000
 H       -1.0020390000        0.1272750000        2.0276700000
 H       -3.4371200000        0.2987370000        1.9352840000
 C        4.9455490000       -0.3566860000       -0.1599350000
 C        5.7671180000        0.5046060000        0.4571090000
 C       -4.9455330000        0.3566670000       -0.1599870000
 C       -5.7671310000       -0.5044240000        0.4573050000
Cl        5.2399020000        1.9057540000        1.2769440000
Cl        5.5728640000       -1.7015660000       -1.0344850000
Cl       -5.2399900000       -1.9054110000        1.2774660000
Cl       -5.5728210000        1.7012340000       -1.0350320000
 H        6.8457190000        0.3369410000        0.4503230000
 H       -6.8457330000       -0.3367730000        0.4503850000

