%nproc=8
%mem=18000mb
#P PBE1PBE DEF2TZVPP OPT(calcall) FREQ SCF(tight) INT(ultrafine)

 112-trimethyl-3p_2c_gn

 2 1
 N        3.8017440000        0.0959650000        0.0200240000
 C        3.2034430000       -0.9890360000        0.5456370000
 C        1.8251180000       -1.1214840000        0.5331270000
 C        3.0638440000        1.0826690000       -0.5285200000
 C        1.6841270000        1.0083190000       -0.5619570000
 C        1.0304490000       -0.1119020000       -0.0256910000
 H        3.6123610000        1.9311330000       -0.9441940000
 H        1.1337610000        1.8232480000       -1.0360190000
 H        3.8551470000       -1.7493850000        0.9808780000
 H        1.3885980000       -2.0120530000        0.9894410000
 C       -0.4491560000       -0.2268890000       -0.0512430000
 C       -1.0744510000       -1.4523070000       -0.3230200000
 C       -2.4516440000       -1.5145230000       -0.3408810000
 C       -1.2645370000        0.8799150000        0.1954450000
 C       -2.6575040000        0.7816160000        0.1800850000
 N       -3.2164700000       -0.4290870000       -0.0940500000
 H       -0.8328070000        1.8528570000        0.4365660000
 H       -0.5092540000       -2.3578500000       -0.5502740000
 H       -2.9820680000       -2.4431350000       -0.5592790000
 C       -4.6794370000       -0.5737110000       -0.1249880000
 H       -5.1028530000        0.0858570000       -0.8941610000
 H       -5.1002180000       -0.3118690000        0.8549840000
 H       -4.9319640000       -1.6125490000       -0.3608040000
 C        5.2699570000        0.2205970000        0.0310190000
 H        5.7038170000       -0.6473970000        0.5385970000
 H        5.5519600000        1.1369930000        0.5665830000
 H        5.6375310000        0.2625060000       -1.0033660000
 C       -3.5352650000        1.9492190000        0.4559450000
 H       -2.9331740000        2.8425600000        0.6571970000
 H       -4.1810370000        1.7689400000        1.3306910000
 H       -4.1963880000        2.1671030000       -0.3984020000

