%nproc=8
%mem=18000mb
#P PBE1PBE DEF2TZVPP OPT FREQ SCF(tight) INT(ultrafine)

 5-hydroxy-14-nq_n_ox

 1 2
 C        0.1975990000       -2.1206790000        0.0000270000
 C        1.6050420000       -2.2289860000        0.0001270000
 C       -0.4313170000       -0.8470430000        0.0000270000
 C        0.3281780000        0.2994430000       -0.0000200000
 C        1.7691510000        0.1952100000       -0.0001380000
 C        2.3930240000       -1.0996670000        0.0000490000
 H        3.4849280000       -1.1424550000        0.0000780000
 H        2.0686490000       -3.2181490000        0.0002520000
 H       -0.4418820000       -3.0084970000        0.0000090000
 C       -1.9306870000       -0.7436930000       -0.0000060000
 C       -2.5105200000        0.6208990000        0.0001190000
 C       -1.7499270000        1.7334070000        0.0000380000
 C       -0.2891210000        1.6451260000        0.0000380000
 O       -2.6112130000       -1.7404620000       -0.0001880000
 O        0.4419490000        2.6345660000        0.0000410000
 O        2.4879360000        1.2527320000       -0.0001050000
 H        1.8308820000        2.0637850000       -0.0001150000
 H       -3.6029980000        0.6671550000        0.0002050000
 H       -2.1774960000        2.7393760000        0.0000140000

