%nproc=8
%mem=18000mb
#P PBE1PBE DEF2TZVPP OPT FREQ SCF(tight) INT(ultrafine)

 5-hydroxy-14-nq_n_rd

-1 2
 C        1.6722580000       -1.3150410000        0.0000000000
 C        2.6774310000       -0.3590820000        0.0000000000
 C        0.3247970000       -0.9160400000        0.0000000000
 C       -0.0000000000        0.4627890000        0.0000000000
 C        1.0444640000        1.4355110000        0.0000000000
 C        2.3756850000        1.0096810000        0.0000000000
 H        3.1611880000        1.7697150000        0.0000000000
 H        3.7270860000       -0.6719060000        0.0000000000
 H        1.8792810000       -2.3872140000        0.0000000000
 C       -0.7385030000       -1.9437870000        0.0000000000
 C       -2.0873540000       -1.4361600000        0.0000000000
 C       -2.3922160000       -0.0901930000        0.0000000000
 C       -1.3846700000        0.9216930000        0.0000000000
 O       -0.4736660000       -3.1633930000        0.0000000000
 O       -1.6609140000        2.1675410000        0.0000000000
 O        0.7440980000        2.7293250000        0.0000000000
 H       -0.2857940000        2.7398890000        0.0000000000
 H       -2.8792490000       -2.1919320000        0.0000000000
 H       -3.4300140000        0.2574380000        0.0000000000

