%nproc=8
%mem=18000mb
#P PBE1PBE DEF2TZVPP OPT FREQ SCF(tight) INT(ultrafine)

 3i_2c_rd

 1 2
 C        3.4332300000        0.8363410000       -0.0641590000
 C        2.5846790000        1.9062940000        0.2339540000
 C        2.8597020000       -0.3429230000       -0.4711060000
 N        1.5196270000       -0.5253480000       -0.5277820000
 C        1.2019640000        1.7472660000        0.1926320000
 C        0.6289450000        0.4563890000       -0.1047140000
 C        0.3397870000        2.8686110000        0.4131460000
 C       -1.0007220000        2.7463810000        0.2647420000
 C       -1.5986060000        1.4692640000        0.0061530000
 C       -0.7762360000        0.2908030000        0.0008260000
 C       -2.9595850000        1.3667030000       -0.2821010000
 C       -3.5128030000        0.1108840000       -0.5916760000
 C       -2.7523290000       -1.0056390000       -0.3854860000
 N       -1.4447310000       -0.9505960000        0.0386850000
 C        1.0646050000       -1.7977980000       -1.1059440000
 C       -1.1231860000       -2.0058890000        1.0326800000
 C        1.0074840000       -2.8910790000       -0.0468160000
 H        1.7658720000       -2.0580200000       -1.9102480000
 H        0.0922120000       -1.6268900000       -1.5799130000
 C        0.3208690000       -2.4130420000        1.2210330000
 H       -1.7051840000       -2.8859340000        0.7188670000
 H       -1.5412850000       -1.6795470000        2.0007550000
 H        2.0294210000       -3.2252030000        0.1953990000
 H        0.4898940000       -3.7662160000       -0.4724260000
 H        0.3145270000       -3.2233680000        1.9666610000
 H        0.8976330000       -1.5990900000        1.6897640000
 H        2.9968390000        2.8863240000        0.4843240000
 H        4.5185620000        0.9309520000       -0.0348340000
 H        3.4610920000       -1.1907260000       -0.8043970000
 H       -3.5745810000        2.2683560000       -0.2975970000
 H       -3.1715630000       -2.0107440000       -0.4705620000
 H       -4.5441930000        0.0067200000       -0.9297180000
 H        0.7957710000        3.8330660000        0.6454960000
 H       -1.6560730000        3.6165250000        0.3431330000

