%nproc=8
%mem=18000mb
#P PBE1PBE DEF2TZVPP OPT FREQ SCF(tight) INT(ultrafine)

 3i_2c_gn

 2 1
 C        3.4907710000       -0.4791190000       -0.2885930000
 C        2.7914750000       -1.6639350000       -0.3909910000
 C        2.8063090000        0.6498710000        0.1552400000
 N        1.4783260000        0.6629390000        0.3351650000
 C        1.3905640000       -1.6787790000       -0.1977580000
 C        0.7200320000       -0.4450700000        0.0204370000
 C        0.6634100000       -2.9090170000       -0.1507310000
 C       -0.6634140000       -2.9090150000        0.1507390000
 C       -1.3905660000       -1.6787760000        0.1977620000
 C       -0.7200330000       -0.4450690000       -0.0204350000
 C       -2.7914780000       -1.6639300000        0.3909900000
 C       -3.4907730000       -0.4791140000        0.2885840000
 C       -2.8063090000        0.6498730000       -0.1552500000
 N       -1.4783240000        0.6629410000       -0.3351700000
 C        0.9391410000        1.8002770000        1.1489370000
 C       -0.9391340000        1.8002790000       -1.1489350000
 C        0.6622370000        3.0745820000        0.3718170000
 H        1.6995730000        1.9771870000        1.9208150000
 H        0.0498420000        1.4278770000        1.6764980000
 C       -0.6622370000        3.0745820000       -0.3718080000
 H       -1.6995600000        1.9771910000       -1.9208190000
 H       -0.0498310000        1.4278820000       -1.6764900000
 H        1.4988500000        3.2703140000       -0.3201010000
 H        0.6772870000        3.9067300000        1.0920580000
 H       -1.4988510000        3.2703050000        0.3201100000
 H       -0.6772890000        3.9067340000       -1.0920430000
 H        3.3127570000       -2.6020120000       -0.6021870000
 H        4.5706240000       -0.4275900000       -0.4413200000
 H        3.3399420000        1.5593950000        0.4435080000
 H       -3.3127610000       -2.6020070000        0.6021880000
 H       -3.3399390000        1.5593970000       -0.4435220000
 H       -4.5706260000       -0.4275850000        0.4413050000
 H        1.2071170000       -3.8454100000       -0.2952390000
 H       -1.2071220000       -3.8454070000        0.2952490000

