%nproc=8
%mem=18000mb
#P PBE1PBE DEF2TZVPP OPT FREQ SCF(tight) INT(ultrafine)

 3h_2c_rd

 1 2
 C       -3.5017500000        0.2367230000        0.1959690000
 C       -2.8029000000        1.4554250000        0.2309220000
 C       -2.8094510000       -0.9114560000       -0.0906610000
 C       -1.4165150000        1.4722740000        0.0996620000
 N       -1.4595360000       -0.9199340000       -0.2591090000
 C       -0.7041690000        0.2338080000       -0.0307140000
 C       -0.6739770000        2.6997240000        0.0760180000
 C        0.6739840000        2.6997180000       -0.0759300000
 C        1.4165240000        1.4722670000       -0.0996390000
 C        0.7041810000        0.2337990000        0.0306730000
 C        2.8029110000        1.4554310000       -0.2309080000
 C        3.5017420000        0.2367030000       -0.1960590000
 C        2.8094530000       -0.9114860000        0.0905130000
 N        1.4595260000       -0.9199670000        0.2590180000
 H       -4.5826570000        0.1926350000        0.3294230000
 H       -3.3097200000       -1.8697260000       -0.2415560000
 H       -3.3397370000        2.3981960000        0.3532150000
 H       -1.2267830000        3.6384340000        0.1501280000
 H        1.2268060000        3.6384220000       -0.1499970000
 C        0.8342240000       -2.0629580000        0.9301140000
 C       -0.0000490000       -2.9250140000        0.0001190000
 H        0.2112740000       -1.6548120000        1.7417040000
 H        1.6281260000       -2.6499540000        1.4094050000
 C       -0.8342010000       -2.0629980000       -0.9300210000
 H       -0.6387790000       -3.5807670000        0.6118180000
 H        0.6385800000       -3.5809390000       -0.6115050000
 H       -1.6280630000       -2.6500240000       -1.4093410000
 H       -0.2111380000       -1.6549600000       -1.7415750000
 H        4.5826400000        0.1926020000       -0.3295810000
 H        3.3097250000       -1.8697740000        0.2412800000
 H        3.3397560000        2.3982030000       -0.3531360000

