%nproc=8
%mem=18000mb
#P PBE1PBE DEF2TZVPP OPT FREQ SCF(tight) INT(ultrafine)

 3-methoxycarbonyl-3c_2c_ox

 3 2
 C       -4.9263960000       -0.2142650000       -0.0276450000
 C       -4.3250690000       -1.4534200000        0.1565630000
 C       -2.9266840000       -1.5405450000        0.1646080000
 C       -4.1177260000        0.9108030000       -0.1823040000
 N       -2.7786390000        0.8120390000       -0.1632930000
 C       -2.1526380000       -0.3960640000       -0.0074980000
 C       -0.6778410000       -0.4446990000       -0.0293730000
 N        0.0301710000        0.6995500000        0.2346120000
 C       -1.9463440000        2.0120510000       -0.3614450000
 C       -0.7341620000        1.9361450000        0.5330370000
 H       -2.5356430000        2.9024770000       -0.1024320000
 H       -1.6760620000        2.0835010000       -1.4287080000
 H       -1.0087840000        1.9125690000        1.6017780000
 H       -0.0838520000        2.8044320000        0.3619910000
 C        0.0286360000       -1.6197400000       -0.3025740000
 C        1.4184010000       -1.6331060000       -0.2761410000
 C        2.1027490000       -0.4404340000        0.0124740000
 C        1.3709330000        0.7195420000        0.2688380000
 H       -6.0141700000       -0.0965120000       -0.0447600000
 H       -4.5369040000        1.9117650000       -0.3237610000
 H        1.8480630000        1.6770740000        0.5005340000
 H       -2.4545800000       -2.5102360000        0.3328420000
 H       -0.5067010000       -2.5331630000       -0.5676860000
 H       -4.9307440000       -2.3542590000        0.2973690000
 H        1.9564540000       -2.5600740000       -0.5033460000
 C        3.5884320000       -0.3784770000        0.0415620000
 O        4.1699460000       -1.4498530000        0.3821430000
 O        4.1933240000        0.6877380000       -0.2338790000
 C        5.6817570000        0.8220950000       -0.1943720000
 H        6.0592500000        0.2995760000        0.6952050000
 H        5.8476190000        1.9027920000       -0.1470190000
 H        6.0648970000        0.3965340000       -1.1317350000

