%nproc=8
%mem=18000mb
#P PBE1PBE DEF2TZVPP OPT FREQ SCF(tight) INT(ultrafine)

 1133-tetramethyl-3p_2c_rd

 1 2
 N       -3.5385480000       -0.4203890000       -0.0750920000
 C       -2.7694360000       -1.4738730000       -0.4648480000
 C       -1.4072750000       -1.4069260000       -0.4099640000
 C       -2.9243240000        0.6961630000        0.4106490000
 C       -1.5583090000        0.8496910000        0.4710440000
 C       -0.7216170000       -0.2234660000        0.0010530000
 H       -3.5938030000        1.4680530000        0.7958060000
 H       -3.2977940000       -2.3539420000       -0.8335470000
 H       -0.8438360000       -2.2723130000       -0.7611210000
 C        0.7216170000       -0.2234660000       -0.0010600000
 C        1.4072750000       -1.4069280000        0.4099500000
 C        2.7694350000       -1.4738760000        0.4648340000
 C        1.5583090000        0.8496940000       -0.4710440000
 C        2.9243250000        0.6961660000       -0.4106480000
 N        3.5385490000       -0.4203900000        0.0750840000
 H        0.8438350000       -2.2723190000        0.7610990000
 H        3.2977940000       -2.3539480000        0.8335270000
 C        4.9874670000       -0.4616170000        0.1918130000
 H        5.4475500000       -0.0119250000       -0.6983900000
 H        5.3199010000       -1.5036790000        0.2676460000
 H        5.3230330000        0.0869900000        1.0855400000
 C       -4.9874690000       -0.4616150000       -0.1917890000
 H       -5.3198840000       -1.5036660000       -0.2678520000
 H       -5.3230670000        0.0871870000       -1.0853840000
 H       -5.4475400000       -0.0121330000        0.6985280000
 H        3.5938030000        1.4680580000       -0.7958000000
 C       -1.0294730000        2.0750410000        1.1617670000
 H       -1.6786310000        2.3498600000        2.0050150000
 H       -0.9864400000        2.9454110000        0.4911250000
 H       -0.0204160000        1.9041580000        1.5598740000
 C        1.0294740000        2.0750470000       -1.1617610000
 H        0.0204180000        1.9041650000       -1.5598700000
 H        1.6786330000        2.3498700000       -2.0050080000
 H        0.9864400000        2.9454140000       -0.4911150000

