%nproc=8
%mem=18000mb
#P PBE1PBE DEF2TZVPP OPT FREQ SCF(tight) INT(ultrafine)

 3-bromo-7a_n_gn

 0 1
 C       -5.0015190000        0.5679460000       -0.6080640000
 C       -4.9174200000       -0.8204420000       -0.6708750000
 C       -3.8956490000        1.3208850000       -0.2195430000
 C       -2.6980690000        0.6970230000        0.1469270000
 C       -2.6233490000       -0.7062830000        0.0988160000
 C       -3.7210970000       -1.4508760000       -0.3285840000
 H       -5.9302520000        1.0770910000       -0.8753710000
 H       -3.9576210000        2.4126700000       -0.1920480000
 H       -5.7765620000       -1.4158620000       -0.9860980000
 H       -3.6362220000       -2.5394010000       -0.3757070000
 N       -1.5973640000        1.4504220000        0.5430680000
 C       -0.2820950000        1.0447180000        0.3587550000
 C        0.0488180000       -0.3228240000        0.3336960000
 S       -1.1812630000       -1.5398680000        0.6984920000
 C        0.7414400000        1.9831150000        0.1886980000
 C        2.0649560000        1.5861830000        0.0160660000
 C        2.3710950000        0.2293680000       -0.0248370000
 C        1.3649940000       -0.7260640000        0.1195850000
 H        0.4973560000        3.0491230000        0.1993890000
 H        2.8517800000        2.3330400000       -0.0996180000
 H        1.6052480000       -1.7902980000        0.0838600000
 H       -1.7417350000        2.4515450000        0.5431720000
Br        4.1559180000       -0.3288420000       -0.2782510000

