%nproc=8
%mem=18000mb
#P PBE1PBE DEF2TZVPP OPT FREQ SCF(tight) INT(ultrafine)

 3-bromo-7a_n_rd

-1 2
 C       -5.0726050000        0.4203250000       -0.9263480000
 C       -4.9518080000       -0.9660690000       -0.8685240000
 C       -4.0257740000        1.2336120000       -0.4965140000
 C       -2.8491250000        0.6833220000        0.0349430000
 C       -2.7403950000       -0.7242800000        0.1135640000
 C       -3.7772720000       -1.5264630000       -0.3610080000
 H       -5.9814640000        0.8801090000       -1.3236400000
 H       -4.1138660000        2.3224740000       -0.5644390000
 H       -5.7608160000       -1.6121840000       -1.2171700000
 H       -3.6596590000       -2.6123450000       -0.3111430000
 N       -1.8232170000        1.4886300000        0.4816110000
 C       -0.4669440000        1.1054880000        0.4648790000
 C       -0.0993830000       -0.2402030000        0.5995880000
 S       -1.3589400000       -1.4575350000        0.9331480000
 C        0.5381120000        2.0614290000        0.2880730000
 C        1.8844550000        1.6829320000        0.2817690000
 C        2.2383740000        0.3461610000        0.4149160000
 C        1.2463970000       -0.6185610000        0.5476980000
 H        0.2513620000        3.1139150000        0.1625460000
 H        2.6611270000        2.4463860000        0.1576580000
 H        1.5089570000       -1.6806280000        0.6222070000
 H       -1.9714210000        2.4798970000        0.3463780000
Br        4.5722040000       -0.3766750000       -0.4780650000

