%nproc=8
%mem=18000mb
#P PBE1PBE DEF2TZVPP OPT FREQ SCF(tight) INT(ultrafine)

 3-propoxy-3c_2c_rd

 1 2
 C       -4.9716910000       -0.0222270000        0.2936800000
 C       -4.4556640000        1.2984230000        0.2097950000
 C       -3.1032870000        1.4936500000        0.0905770000
 C       -4.0945920000       -1.0655920000        0.2710160000
 N       -2.7481650000       -0.8705440000        0.1644280000
 C       -2.2008780000        0.4009700000        0.0526520000
 C       -0.7902720000        0.5463130000       -0.1007710000
 N       -0.0087620000       -0.5534130000       -0.3938960000
 C       -1.8376520000       -1.9965080000        0.2776190000
 C       -0.6765990000       -1.8126370000       -0.6745940000
 C       -0.1163490000        1.7867670000        0.0344990000
 C        1.2379870000        1.8864250000       -0.1078390000
 C        2.0163830000        0.7252480000       -0.3998360000
 C        1.3548010000       -0.4759560000       -0.5312060000
 H       -6.0413580000       -0.2163190000        0.3720820000
 H       -2.7113070000        2.5050650000       -0.0083090000
 H       -0.6920640000        2.6769210000        0.2845540000
 H        1.7566760000        2.8395460000        0.0069660000
 H       -5.1318140000        2.1549950000        0.2247160000
 H       -4.4151590000       -2.1065560000        0.3425160000
 H        1.8578550000       -1.4162080000       -0.7491700000
 H        0.0416490000       -2.6338220000       -0.5520980000
 H       -1.0308860000       -1.8207730000       -1.7202980000
 H       -2.3800100000       -2.9205710000        0.0382820000
 H       -1.4706870000       -2.0733330000        1.3159700000
 O        3.3221780000        0.9175290000       -0.5276050000
 C        4.2058180000       -0.1638930000       -0.8192690000
 C        4.5940850000       -0.9599160000        0.4138890000
 H        5.0909060000        0.3210680000       -1.2550410000
 H        3.7631930000       -0.8016570000       -1.6044810000
 C        5.2888520000       -0.1276260000        1.4801860000
 H        3.7051870000       -1.4564960000        0.8403860000
 H        5.2555410000       -1.7737480000        0.0716770000
 H        5.5576400000       -0.7451590000        2.3490180000
 H        4.6445660000        0.6903160000        1.8354130000
 H        6.2154910000        0.3235560000        1.0925500000

