%nproc=8
%mem=18000mb
#P PBE1PBE DEF2TZVPP OPT FREQ SCF(tight) INT(ultrafine)

 3-methoxy-3c_2c_rd

 1 2
 C        4.2490870000       -0.5721620000       -0.0134070000
 C        3.4837720000       -1.7623930000       -0.1405610000
 C        2.1139950000       -1.6930330000       -0.1362010000
 C        3.5902400000        0.6125140000        0.1289030000
 N        2.2269130000        0.6800950000        0.1461940000
 C        1.4383750000       -0.4541190000       -0.0023720000
 C        0.0178990000       -0.3222530000       -0.0208180000
 N       -0.5588850000        0.9305570000       -0.1545910000
 C        1.5641470000        1.9409790000        0.4306440000
 C        0.3145240000        2.0628350000       -0.4135560000
 H        2.2530670000        2.7658020000        0.2063000000
 H        1.3064700000        1.9921300000        1.5029170000
 H        0.5754310000        2.0905210000       -1.4857720000
 H       -0.2198700000        2.9895880000       -0.1677140000
 C       -0.8710620000       -1.4155620000        0.0955690000
 C       -2.2333920000       -1.2544780000        0.0968960000
 C       -2.7841330000        0.0543720000       -0.0191180000
 C       -1.9088900000        1.1128640000       -0.1441290000
 H        5.3388230000       -0.5863340000       -0.0301640000
 H        4.1099680000        1.5656210000        0.2427610000
 H       -2.2781760000        2.1336150000       -0.2459010000
 H        1.5279960000       -2.6016750000       -0.2689890000
 H       -0.4594270000       -2.4167890000        0.2174810000
 H        3.9815860000       -2.7266160000       -0.2569300000
 H       -2.8783460000       -2.1266490000        0.2025770000
 O       -4.0812360000        0.3446330000       -0.0132030000
 C       -5.0362760000       -0.6896550000        0.1093550000
 H       -6.0174460000       -0.2022150000        0.0840920000
 H       -4.9276650000       -1.2264850000        1.0658960000
 H       -4.9684140000       -1.4015980000       -0.7293710000

