%nproc=8
%mem=18000mb
#P PBE1PBE DEF2TZVPP OPT FREQ SCF(tight) INT(ultrafine)

 3-methoxy-3c_2c_ox

 3 2
 C        4.2509360000       -0.5796420000       -0.0167100000
 C        3.5141010000       -1.7398840000       -0.2192050000
 C        2.1157310000       -1.6663070000       -0.2097990000
 C        3.5713930000        0.6311090000        0.1818040000
 N        2.2340790000        0.6893460000        0.1760980000
 C        1.4684210000       -0.4389090000       -0.0080490000
 C        0.0140790000       -0.3256380000        0.0058510000
 N       -0.5685700000        0.9120900000       -0.1756280000
 C        1.5486520000        1.9684720000        0.4453180000
 C        0.3213370000        2.0764810000       -0.4230750000
 H        2.2325550000        2.7971210000        0.2136710000
 H        1.3089800000        2.0178640000        1.5214470000
 H        0.5683230000        2.0824730000       -1.4990370000
 H       -0.2294290000        2.9981050000       -0.1893590000
 C       -0.8356950000       -1.4449720000        0.1951470000
 C       -2.2071210000       -1.3311560000        0.1928570000
 C       -2.7760890000       -0.0422230000       -0.0120340000
 C       -1.8862860000        1.0723290000       -0.1916640000
 H        5.3461690000       -0.5820700000       -0.0104390000
 H        4.1084260000        1.5702380000        0.3534510000
 H       -2.2973910000        2.0763250000       -0.3537830000
 H        1.5379850000       -2.5742030000       -0.3935320000
 H       -0.3950990000       -2.4264330000        0.3815380000
 H        4.0127490000       -2.7003920000       -0.3866840000
 H       -2.8286750000       -2.2165360000        0.3568150000
 O       -4.0172190000        0.2793370000       -0.0549180000
 C       -5.1755180000       -0.5662670000        0.0805190000
 H       -5.7553950000       -0.1375200000        0.9174630000
 H       -4.9135820000       -1.6172170000        0.2432080000
 H       -5.7600770000       -0.4128610000       -0.8444580000

