%nproc=8
%mem=18000mb
#P PBE1PBE DEF2TZVPP OPT FREQ SCF(tight) INT(ultrafine)

 1-allyl-3q_2c_ox

 3 2
 N       -2.7895310000        0.2720170000       -0.4078330000
 C       -2.1215520000       -0.7767060000       -0.9542090000
 C       -0.7502810000       -0.8913880000       -0.8234990000
 C       -2.1125630000        1.2293050000        0.2776280000
 C       -0.7403560000        1.1587880000        0.4278690000
 C       -0.0143890000        0.0931690000       -0.1369210000
 C        1.4664300000        0.0229360000       -0.0346940000
 C        2.1286970000       -1.2027670000        0.1176720000
 C        3.5132780000       -1.2324080000        0.2054720000
 N        4.2378910000       -0.1012550000        0.1336350000
 C        2.2499940000        1.1862940000       -0.0991360000
 C        3.6293180000        1.0920110000       -0.0182120000
 H       -2.7057870000       -1.5040370000       -1.5252750000
 H       -0.2622610000       -1.7391770000       -1.3107980000
 H       -2.6921110000        2.0617730000        0.6869640000
 H       -0.2495510000        1.9506240000        0.9991830000
 H        1.5945530000       -2.1516330000        0.2009540000
 H        4.0646320000       -2.1667610000        0.3356260000
 H        4.2765420000        1.9712290000       -0.0770520000
 H        1.8156530000        2.1776810000       -0.2450630000
 C        5.7127880000       -0.1512060000        0.2067710000
 H        6.0305760000       -1.1735830000        0.4379510000
 H        6.0570530000        0.5301830000        0.9965680000
 H        6.1297810000        0.1567170000       -0.7629650000
 C       -4.2250520000        0.4393830000       -0.6698230000
 C       -5.2187130000       -0.1562320000        0.2348350000
 H       -4.4736910000        1.5229700000       -0.7454340000
 H       -4.4644230000        0.0967170000       -1.7013060000
 C       -5.0278310000       -0.9030700000        1.4183690000
 H       -6.2608570000        0.0346420000       -0.0751930000
 H       -4.0593470000       -0.9659300000        1.9322820000
 H       -5.8779060000       -1.4454050000        1.8602130000

