%nproc=8
%mem=18000mb
#P PBE1PBE DEF2TZVPP OPT FREQ SCF(tight) INT(ultrafine)

 3355-tbromodiphenq_n_gn

 0 1
 C        2.8126640000       -1.2415000000       -0.0000050000
 C        3.6268970000       -0.0000010000       -0.0000110000
 C        2.8126700000        1.2415030000       -0.0000040000
 C        1.4576380000       -1.2310440000       -0.0000070000
 C        0.7021030000        0.0000060000       -0.0000090000
 C        1.4576440000        1.2310530000       -0.0000060000
 H        0.9403980000       -2.1888670000       -0.0000060000
 H        0.9404100000        2.1888800000       -0.0000050000
 O        4.8365940000       -0.0000040000        0.0000050000
 C       -0.7021020000        0.0000060000       -0.0000110000
 C       -1.4576380000       -1.2310440000       -0.0000060000
 C       -2.8126640000       -1.2415000000       -0.0000070000
 C       -3.6268970000       -0.0000010000       -0.0000310000
 C       -2.8126700000        1.2415030000       -0.0000070000
 C       -1.4576440000        1.2310530000       -0.0000060000
 H       -0.9403980000       -2.1888670000        0.0000010000
 H       -0.9404100000        2.1888800000        0.0000000000
 O       -4.8365940000       -0.0000040000        0.0000140000
Br        3.7706790000       -2.8424090000        0.0000000000
Br        3.7706940000        2.8424070000        0.0000020000
Br       -3.7706790000       -2.8424090000        0.0000070000
Br       -3.7706940000        2.8424070000        0.0000060000

