%nproc=8
%mem=18000mb
#P PBE1PBE DEF2TZVPP OPT FREQ SCF(tight) INT(ultrafine)

 3355-tbromodiphenq_n_ox

 1 2
 C       -0.2133090000        1.2426750000        2.8082750000
 C        0.0000000000        0.0000000000        3.6124530000
 C        0.2133090000       -1.2426750000        2.8082750000
 C       -0.1948060000        1.2201660000        1.4418210000
 C        0.0000000000        0.0000000000        0.7223270000
 C        0.1948060000       -1.2201660000        1.4418210000
 H       -0.3799670000        2.1506660000        0.9063440000
 H        0.3799670000       -2.1506660000        0.9063440000
 O        0.0000000000        0.0000000000        4.8176990000
 C        0.0000000000        0.0000000000       -0.7223270000
 C        0.1948060000        1.2201660000       -1.4418210000
 C        0.2133090000        1.2426750000       -2.8082750000
 C        0.0000000000        0.0000000000       -3.6124530000
 C       -0.2133090000       -1.2426750000       -2.8082750000
 C       -0.1948060000       -1.2201660000       -1.4418210000
 H        0.3799670000        2.1506660000       -0.9063440000
 H       -0.3799670000       -2.1506660000       -0.9063440000
 O        0.0000000000        0.0000000000       -4.8176990000
Br       -0.5059170000        2.7910530000        3.7538420000
Br        0.5059170000       -2.7910530000        3.7538420000
Br        0.5059170000        2.7910530000       -3.7538420000
Br       -0.5059170000       -2.7910530000       -3.7538420000

