%nproc=8
%mem=18000mb
#P PBE1PBE DEF2TZVPP OPT FREQ SCF(tight) INT(ultrafine)

 3g_2c_rd

 1 2
 C       -3.4914490000        0.0191840000        0.0643550000
 C       -2.8186510000        1.2558030000        0.0738980000
 C       -1.4266780000        1.2931470000        0.0325780000
 C       -2.7665100000       -1.1415410000       -0.0305720000
 N       -1.4084990000       -1.1288390000       -0.0829600000
 C       -0.7006360000        0.0632870000       -0.0095950000
 C       -0.6790590000        2.5184310000        0.0248730000
 C        0.6790590000        2.5184310000       -0.0248730000
 C        1.4266780000        1.2931470000       -0.0325780000
 C        0.7006360000        0.0632870000        0.0095950000
 C        2.8186510000        1.2558030000       -0.0738990000
 C        3.4914490000        0.0191840000       -0.0643560000
 C        2.7665100000       -1.1415410000        0.0305720000
 N        1.4084990000       -1.1288390000        0.0829600000
 C       -0.6567230000       -2.3381800000       -0.3784070000
 C        0.6567230000       -2.3381800000        0.3784080000
 H       -0.4713010000       -2.3970370000       -1.4646930000
 H       -1.2553110000       -3.2113340000       -0.0871330000
 H        1.2553110000       -3.2113340000        0.0871340000
 H        0.4713010000       -2.3970360000        1.4646940000
 H       -3.3813250000        2.1904920000        0.1117580000
 H       -4.5791010000       -0.0352610000        0.1134810000
 H       -3.2358660000       -2.1256220000       -0.0817490000
 H        3.3813250000        2.1904920000       -0.1117580000
 H        4.5791010000       -0.0352610000       -0.1134820000
 H        3.2358660000       -2.1256220000        0.0817490000
 H       -1.2317480000        3.4598500000        0.0491390000
 H        1.2317480000        3.4598500000       -0.0491390000

