%nproc=8
%mem=18000mb
#P PBE1PBE DEF2TZVPP OPT FREQ SCF(tight) INT(ultrafine)

 11-diethyl-2-methyl-3p_2c_rd

 1 2
 N        3.7920460000        0.0309670000       -0.2458220000
 C        3.0424650000        1.1678740000       -0.1732460000
 C        1.6776010000        1.1342700000       -0.1675930000
 C        3.1506400000       -1.1713830000       -0.3054340000
 C        1.7885190000       -1.2638980000       -0.3031620000
 C        0.9601830000       -0.1008780000       -0.2320660000
 H        3.7901180000       -2.0538460000       -0.3612570000
 H        1.3599900000       -2.2635560000       -0.3624720000
 H        3.5978540000        2.1060600000       -0.1262450000
 H        1.1589650000        2.0907070000       -0.1167610000
 C       -0.4678320000       -0.1694010000       -0.2300960000
 C       -1.1803980000       -1.4035930000       -0.3009040000
 C       -2.5427390000       -1.4235220000       -0.2953960000
 C       -1.2964000000        0.9884030000       -0.1612870000
 C       -2.6707550000        0.9344270000       -0.1588210000
 N       -3.2978290000       -0.2875420000       -0.2284560000
 H       -0.8535390000        1.9820680000       -0.1102220000
 H       -0.6667150000       -2.3617520000       -0.3655840000
 H       -3.1014400000       -2.3591980000       -0.3496600000
 C       -4.7558610000       -0.4321720000       -0.1518460000
 C        5.2536490000        0.0944900000       -0.1757380000
 C       -3.5024210000        2.1743500000       -0.1039920000
 H       -4.0938200000        2.3053230000       -1.0245480000
 H       -2.8548800000        3.0525420000        0.0026340000
 H       -4.2036280000        2.1669840000        0.7440330000
 C       -5.2620960000       -0.6227480000        1.2674070000
 H       -5.0242930000       -1.2955410000       -0.7778530000
 H       -5.2163130000        0.4442110000       -0.6242780000
 H       -4.8272700000       -1.5214510000        1.7296320000
 H       -6.3550920000       -0.7429770000        1.2578770000
 H       -5.0223150000        0.2389190000        1.9076090000
 C        5.7820410000        0.0364200000        1.2460290000
 H        5.5657110000        1.0225090000       -0.6768290000
 H        5.6470910000       -0.7368080000       -0.7789410000
 H        5.4089320000        0.8781830000        1.8482370000
 H        6.8803700000        0.0877350000        1.2363300000
 H        5.4911690000       -0.8999220000        1.7451120000

