%nproc=8
%mem=18000mb
#P PBE1PBE DEF2TZVPP OPT FREQ SCF(tight) INT(ultrafine)

 11-diethyl-2-methyl-3p_2c_ox

 3 2
 N        3.7800840000       -0.1973790000       -0.0318370000
 C        3.0921340000        0.8521420000        0.4406730000
 C        1.6999460000        0.8666610000        0.4153320000
 C        3.1283270000       -1.2729030000       -0.5388820000
 C        1.7479130000       -1.3253990000       -0.5802600000
 C        0.9962840000       -0.2350850000       -0.1051560000
 H        3.7505840000       -2.0905350000       -0.9148030000
 H        1.2874730000       -2.2111460000       -1.0248880000
 H        3.6677860000        1.6860280000        0.8474190000
 H        1.1933310000        1.7348280000        0.8441990000
 C       -0.4850700000       -0.2453270000       -0.1430200000
 C       -1.2130410000       -1.4295710000        0.1392020000
 C       -2.6414870000       -1.4198050000        0.1271040000
 C       -1.2494710000        0.8842630000       -0.4210770000
 C       -2.6718010000        0.8653930000       -0.4360730000
 N       -3.3362410000       -0.3281140000       -0.1427930000
 H       -0.7753610000        1.8358160000       -0.6763660000
 H       -0.7193210000       -2.3726580000        0.3977440000
 H       -3.2030310000       -2.3372030000        0.3408190000
 C       -4.8353650000       -0.4026820000       -0.0862700000
 C        5.2757500000       -0.2346030000       -0.0167830000
 C       -3.4324340000        2.0564900000       -0.8028570000
 H       -3.8740470000        1.9230470000       -1.8207890000
 H       -2.7996730000        2.9518860000       -0.8397660000
 H       -4.3064390000        2.2321350000       -0.1487150000
 C       -5.3801440000       -0.0647340000        1.2926940000
 H       -5.0919770000       -1.4304290000       -0.3799480000
 H       -5.2222980000        0.2624750000       -0.8692330000
 H       -5.0207400000       -0.7703960000        2.0564410000
 H       -6.4762580000       -0.1594780000        1.2422280000
 H       -5.1524970000        0.9622320000        1.6130790000
 C        5.9638680000        0.9721100000        0.5488800000
 H        5.5733680000       -0.4167130000       -1.0668770000
 H        5.5417050000       -1.1525560000        0.5405610000
 H        5.7632770000        1.8948720000       -0.0213660000
 H        7.0474200000        0.7903900000        0.4862920000
 H        5.7373520000        1.1441410000        1.6153330000

