%nproc=8
%mem=18000mb
#P PBE1PBE DEF2TZVPP OPT FREQ SCF(tight) INT(ultrafine)

 i47di-1-met-23-ch23_n_rd

-1 2
 C       -3.0222530000       -0.1936960000       -0.0320880000
 C       -2.5713470000       -1.5126010000       -0.0188650000
 C       -2.1699500000        0.9656410000       -0.0202220000
 H       -4.0972840000        0.0179760000       -0.0541130000
 C       -0.7414940000        0.6281800000        0.0121700000
 C       -0.2830720000       -0.7366120000        0.0231000000
 C       -1.1835500000       -1.8919420000        0.0074670000
 H       -3.2905830000       -2.3393170000       -0.0308820000
 C        0.3756600000        1.4653260000        0.0255160000
 N        1.4692810000        0.6376050000        0.0305130000
 C        1.0985280000       -0.6823900000        0.0372390000
 O       -2.5929270000        2.1486450000       -0.0342980000
 O       -0.7598510000       -3.0708550000        0.0136870000
 C        0.4469960000        2.9501180000        0.0076740000
 H       -0.5925690000        3.3096960000       -0.0094690000
 H        0.9744770000        3.3421330000       -0.8821290000
 H        0.9548860000        3.3666710000        0.8974470000
 C        2.8944800000        0.8266710000        0.1169080000
 C        3.4272760000       -0.5638480000       -0.2770210000
 H        3.1974010000        1.1043110000        1.1457990000
 H        3.2442280000        1.6277160000       -0.5548390000
 C        2.3077750000       -1.5495570000        0.1191040000
 H        4.3984860000       -0.7856180000        0.1920540000
 H        3.5714840000       -0.5945730000       -1.3691050000
 H        2.4589010000       -1.9353850000        1.1457520000
 H        2.2435320000       -2.4309190000       -0.5351110000

