%nproc=8
%mem=18000mb
#P PBE1PBE DEF2TZVPP OPT FREQ SCF(tight) INT(ultrafine)

 i47di-1-met-23-ch23_n_gn

 0 1
 C       -3.0597230000       -0.1480730000       -0.0376320000
 C       -2.6574580000       -1.4325670000       -0.0226960000
 C       -2.1239420000        1.0154320000       -0.0228860000
 H       -4.1200350000        0.1197680000       -0.0623320000
 C       -0.7097960000        0.6510640000        0.0116380000
 C       -0.2883730000       -0.7203100000        0.0266100000
 C       -1.2230640000       -1.8390170000        0.0110700000
 H       -3.3747940000       -2.2582940000       -0.0345530000
 C        0.4237970000        1.4579380000        0.0248980000
 N        1.4897920000        0.5999460000        0.0379110000
 C        1.0908360000       -0.7064110000        0.0452830000
 O       -2.5549410000        2.1575300000       -0.0383420000
 O       -0.8951450000       -3.0134720000        0.0215060000
 C        0.5581700000        2.9359430000        0.0155730000
 H       -0.4452760000        3.3783470000       -0.0068970000
 H        1.1190230000        3.2879590000       -0.8662990000
 H        1.0861380000        3.3030070000        0.9113500000
 C        2.9302150000        0.7584870000        0.1040720000
 C        3.4249460000       -0.6496010000       -0.2725460000
 H        3.2333070000        1.0504820000        1.1248940000
 H        3.2789800000        1.5395890000       -0.5873590000
 C        2.2754130000       -1.6060860000        0.1094960000
 H        4.3759340000       -0.8981220000        0.2179980000
 H        3.5930400000       -0.6944840000       -1.3595380000
 H        2.3954640000       -2.0063040000        1.1317430000
 H        2.1842330000       -2.4748290000       -0.5569810000

