%nproc=8
%mem=18000mb
#P PBE1PBE DEF2TZVPP OPT FREQ SCF(tight) INT(ultrafine)

 4-bromo-3c_2c_gn

 2 1
 C       -4.5066470000       -0.6847350000       -0.1652430000
 C       -4.2935150000        0.6491520000       -0.5054740000
 C       -3.0040880000        1.1787850000       -0.4392640000
 C       -3.4208470000       -1.4551940000        0.2157150000
 N       -2.1833390000       -0.9263840000        0.2732920000
 C       -1.9417440000        0.3786660000       -0.0284010000
 C       -0.5623250000        0.8994150000        0.0974870000
 N        0.4910360000        0.0233190000        0.0043260000
 C       -1.0402190000       -1.7492500000        0.6939410000
 C        0.1674920000       -1.4082950000       -0.1406490000
 H       -1.2959080000       -2.8079790000        0.5578530000
 H       -0.8574810000       -1.5750540000        1.7674570000
 H        0.0131430000       -1.6300200000       -1.2099900000
 H        1.0246900000       -1.9991860000        0.2044970000
 C       -0.3197130000        2.2497670000        0.2863940000
 C        0.9960470000        2.7187470000        0.3456270000
 C        2.0455340000        1.8274650000        0.2031480000
 C        1.7770730000        0.4672960000        0.0277480000
 H       -5.4996620000       -1.1383150000       -0.2046300000
 H       -3.5133430000       -2.5111790000        0.4814460000
 H       -5.1257300000        1.2793840000       -0.8308370000
 H       -2.8271090000        2.2139290000       -0.7332980000
 H       -1.1517900000        2.9433220000        0.4098670000
 H        1.1952270000        3.7825740000        0.5008220000
 H        3.0852960000        2.1603480000        0.2303840000
Br        3.1833280000       -0.7093510000       -0.1903730000

