%nproc=8
%mem=18000mb
#P PBE1PBE DEF2TZVPP OPT(calcall) FREQ SCF(tight) INT(ultrafine)

 1-2-oxopropyl-3q_2c_gn

 2 1
 N        2.4117670000        0.6299020000        0.4213080000
 C        1.8142100000       -0.4111080000        1.0363130000
 C        0.4444920000       -0.5980010000        0.9447450000
 C        1.6876920000        1.4995310000       -0.3142640000
 C        0.3191340000        1.3637170000       -0.4340540000
 C       -0.3337690000        0.2918650000        0.1969190000
 C       -1.8005950000        0.1077230000        0.0732060000
 C       -2.3591810000       -1.1690630000       -0.0721120000
 C       -3.7311400000       -1.3134790000       -0.1907640000
 N       -4.5472980000       -0.2435480000       -0.1619750000
 C       -2.6776180000        1.2033180000        0.0946510000
 C       -4.0394550000        0.9978700000       -0.0202340000
 H        2.4498580000       -1.0733050000        1.6239490000
 H        0.0028860000       -1.4367420000        1.4858660000
 H        2.2363970000        2.3060430000       -0.8044930000
 H       -0.2197130000        2.0856440000       -1.0504130000
 H       -1.7392620000       -2.0663570000       -0.1232850000
 H       -4.2026960000       -2.2903390000       -0.3157930000
 H       -4.7573660000        1.8210290000        0.0025250000
 H       -2.3185700000        2.2257670000        0.2271180000
 C       -6.0061070000       -0.4111610000       -0.2834070000
 H       -6.2403350000       -1.4743380000       -0.4019090000
 H       -6.3627370000        0.1429550000       -1.1621030000
 H       -6.4914750000       -0.0275430000        0.6242580000
 C        3.8690380000        0.6997070000        0.4359450000
 C        4.4643280000       -0.5334690000       -0.2989240000
 H        4.2291360000        0.6941210000        1.4776590000
 H        4.1968400000        1.6421160000       -0.0225500000
 C        5.9071840000       -0.4356250000       -0.6593250000
 H        6.0108260000        0.1970460000       -1.5577990000
 H        6.2996140000       -1.4343240000       -0.8879420000
 H        6.4972430000        0.0375080000        0.1405090000
 O        3.7510990000       -1.4755890000       -0.5153870000

