%nproc=8
%mem=18000mb
#P PBE1PBE DEF2TZVPP OPT FREQ SCF(tight) INT(ultrafine)

 1-2-oxopropyl-3q_2c_rd

 1 2
 N        2.4243540000        0.3052420000       -0.6391770000
 C        1.7778620000       -0.8902680000       -0.7626050000
 C        0.4252320000       -0.9937290000       -0.6134860000
 C        1.6971400000        1.4148570000       -0.3189800000
 C        0.3437750000        1.3654230000       -0.1546800000
 C       -0.3809110000        0.1415880000       -0.2949020000
 C       -1.7976660000        0.0601970000       -0.1258200000
 C       -2.5222180000       -1.1646890000       -0.2571670000
 C       -3.8759180000       -1.2155340000       -0.0872950000
 N       -4.6074780000       -0.1034220000        0.2108240000
 C       -2.6062760000        1.1959230000        0.1883400000
 C       -3.9580440000        1.0884410000        0.3471280000
 H        2.4011370000       -1.7547280000       -0.9913590000
 H       -0.0109080000       -1.9835040000       -0.7403380000
 H        2.2582960000        2.3439840000       -0.2101910000
 H       -0.1589320000        2.3000110000        0.0905520000
 H       -2.0188840000       -2.1000170000       -0.4983270000
 H       -4.4356240000       -2.1470300000       -0.1838630000
 H       -4.5818790000        1.9505310000        0.5877790000
 H       -2.1721080000        2.1876090000        0.3087720000
 C       -6.0386320000       -0.1999770000        0.4540480000
 H       -6.4623060000       -1.0099600000       -0.1526520000
 H       -6.5260970000        0.7404720000        0.1682160000
 H       -6.2423740000       -0.4023890000        1.5171700000
 C        3.8680410000        0.3542600000       -0.7073010000
 C        4.5280810000       -0.2952070000        0.5209600000
 H        4.1943910000        1.3991160000       -0.8120580000
 H        4.2206080000       -0.1731510000       -1.6102180000
 C        6.0021650000       -0.0659190000        0.6653240000
 H        6.5261620000       -0.1573800000       -0.2983750000
 H        6.4167990000       -0.7734620000        1.3936320000
 H        6.1743870000        0.9599190000        1.0320390000
 O        3.8654270000       -0.9456200000        1.2845380000

