%nproc=8
%mem=18000mb
#P PBE1PBE DEF2TZVPP OPT FREQ SCF(tight) INT(ultrafine)

 37-dimethyl-3-7-phenanthrolinium_2c_rd

 1 2
 N       -3.4231860000       -0.0133850000        0.0000020000
 C       -2.5716240000       -1.0506890000        0.0000200000
 C       -1.1944810000       -0.8733380000        0.0000190000
 C       -0.6422920000        0.4566530000        0.0000010000
 C       -2.9288030000        1.2776460000       -0.0000170000
 C       -1.5915130000        1.5233590000       -0.0000170000
 C       -0.3174960000       -1.9900660000        0.0000410000
 C        1.0366760000       -1.8110200000        0.0000340000
 C        1.6092870000       -0.4991290000        0.0000020000
 C        0.7658600000        0.6532460000       -0.0000010000
 N        2.9626940000       -0.3459440000       -0.0000200000
 C        3.5475060000        0.9016480000       -0.0000120000
 C        1.3834980000        1.9386530000       -0.0000030000
 C        2.7704040000        2.0374710000       -0.0000030000
 C        3.8386280000       -1.5111020000       -0.0000360000
 H        3.6742610000       -2.1244190000        0.8975510000
 H        4.8787440000       -1.1693630000       -0.0001570000
 H        3.6740940000       -2.1245130000       -0.8975260000
 C       -4.8660160000       -0.2116890000        0.0000010000
 H       -5.0898270000       -1.2844390000        0.0000220000
 H       -5.3098590000        0.2455230000       -0.8961690000
 H       -5.3098640000        0.2455580000        0.8961510000
 H       -3.0141080000       -2.0489180000        0.0000340000
 H       -3.6758380000        2.0716580000       -0.0000320000
 H       -1.2711600000        2.5648180000       -0.0000340000
 H       -0.7310320000       -3.0013590000        0.0000670000
 H        1.6824670000       -2.6869420000        0.0000620000
 H        0.7793510000        2.8445820000        0.0000020000
 H        3.2626370000        3.0111390000        0.0000030000
 H        4.6357640000        0.9221130000       -0.0000190000

