%nproc=8
%mem=18000mb
#P PBE1PBE DEF2TZVPP OPT FREQ SCF(tight) INT(ultrafine)

 37-dimethyl-3-7-phenanthrolinium_2c_ox

 3 2
 N       -3.4498440000       -0.0233140000        0.0000050000
 C       -2.6036550000       -1.0553590000        0.0000270000
 C       -1.2004280000       -0.8554370000        0.0000250000
 C       -0.6708830000        0.4705400000        0.0000010000
 C       -2.9669860000        1.2455670000       -0.0000200000
 C       -1.5956310000        1.5172620000       -0.0000230000
 C       -0.3291270000       -1.9637350000        0.0000430000
 C        1.0681470000       -1.7831610000        0.0000300000
 C        1.6303280000       -0.4927350000       -0.0000010000
 C        0.7846600000        0.6634620000       -0.0000020000
 N        3.0143850000       -0.3381960000       -0.0000200000
 C        3.5553660000        0.8721490000       -0.0000180000
 C        1.3792930000        1.9366680000        0.0000030000
 C        2.7619900000        2.0423550000        0.0000010000
 C        3.9110090000       -1.5182260000       -0.0000440000
 H        3.7405910000       -2.1145940000        0.9078210000
 H        4.9489720000       -1.1664760000       -0.0001420000
 H        3.7404560000       -2.1146650000       -0.9078370000
 C       -4.9200150000       -0.2342670000        0.0000080000
 H       -5.1313890000       -1.3096440000        0.0000290000
 H       -5.3437190000        0.2306080000       -0.9024250000
 H       -5.3437210000        0.2306440000        0.9024210000
 H       -3.0393520000       -2.0605140000        0.0000470000
 H       -3.7096520000        2.0516740000       -0.0000390000
 H       -1.3063200000        2.5704990000       -0.0000470000
 H       -0.7254900000       -2.9857880000        0.0000670000
 H        1.6988140000       -2.6756110000        0.0000500000
 H        0.7838240000        2.8525020000        0.0000090000
 H        3.2617620000        3.0171130000        0.0000100000
 H        4.6490150000        0.9343370000       -0.0000360000

