%nproc=8
%mem=18000mb
#P PBE1PBE DEF2TZVPP OPT FREQ SCF(tight) INT(ultrafine)

 i47di-12-met-3-phenyl_n_ox

 1 2
 C        3.2354710000       -1.8639420000       -0.1884800000
 C        2.1095080000       -2.5994950000       -0.2040010000
 C        3.2164150000       -0.3884930000       -0.0713960000
 H        4.2262720000       -2.3193000000       -0.2653200000
 C        1.8636250000        0.2074830000        0.0366690000
 C        0.7467420000       -2.0205730000       -0.0991840000
 H        2.1341500000       -3.6884740000       -0.2968380000
 C        0.7003070000       -0.5421370000        0.0560470000
 C        1.5045380000        1.5820300000        0.0880270000
 C       -0.4049360000        0.3785310000        0.0824780000
 N        0.1443740000        1.6510950000        0.1043440000
 O        4.2268590000        0.2811540000       -0.0675960000
 O       -0.2408760000       -2.7215440000       -0.1404300000
 C        2.3854740000        2.7609940000        0.1422330000
 H        3.4184460000        2.4513230000       -0.0562450000
 H        2.3587400000        3.2141570000        1.1503670000
 H        2.0736440000        3.5373590000       -0.5732500000
 C       -0.5765290000        2.9026120000        0.2887010000
 H        0.0056390000        3.5593220000        0.9463770000
 H       -1.5428910000        2.7035770000        0.7644500000
 H       -0.7390850000        3.4137520000       -0.6711760000
 C       -1.8155650000        0.1134630000        0.0320720000
 C       -2.3519840000       -0.9958710000        0.7362050000
 C       -2.6933270000        0.9303720000       -0.7294870000
 C       -4.0438250000        0.6416260000       -0.7843500000
 C       -3.7126850000       -1.2517070000        0.7021250000
 C       -4.5601020000       -0.4425230000       -0.0593700000
 H       -1.6965370000       -1.6298570000        1.3298830000
 H       -4.1190990000       -2.0921020000        1.2680770000
 H       -5.6305460000       -0.6588240000       -0.0972690000
 H       -2.2995850000        1.7491510000       -1.3328610000
 H       -4.7064050000        1.2511380000       -1.4021340000

