%nproc=8
%mem=18000mb
#P PBE1PBE DEF2TZVPP OPT FREQ SCF(tight) INT(ultrafine)

 1t-och3_n_rd

-1 2
 C        0.1532490000        3.2608840000       -0.9145630000
 C       -1.0702340000        3.8832180000       -0.5674980000
 C        0.2548550000        1.8883260000       -0.8745910000
 C       -0.8383910000        1.0701020000       -0.4953610000
 C       -2.0970090000        1.6942810000       -0.1852290000
 C       -2.1571920000        3.1226680000       -0.2172190000
 H        1.0125580000        3.8654510000       -1.2158560000
 H        1.1970010000        1.4112920000       -1.1510760000
 H       -1.1509190000        4.9744910000       -0.5903020000
 H       -3.1198590000        3.5715810000        0.0387200000
 C       -0.7498830000       -0.3714450000       -0.4578740000
 C       -1.9895360000       -1.0611300000       -0.1891210000
 N       -3.2206440000        1.0338520000        0.1283010000
 C       -3.1697060000       -0.3059850000        0.1100490000
 C       -2.0481010000       -2.4751260000       -0.1865830000
 C       -3.2176830000       -3.1441350000        0.0975370000
 C       -4.3876230000       -2.4063650000        0.4028100000
 C       -4.3628380000       -1.0331050000        0.4094540000
 H       -1.1257950000       -3.0098560000       -0.4258590000
 H       -3.2456800000       -4.2371420000        0.0884560000
 H       -5.3177830000       -2.9354810000        0.6329670000
 H       -5.2514640000       -0.4398470000        0.6380610000
 N        0.3212290000       -1.0961820000       -0.7561600000
 C        1.6218120000       -0.9236370000       -0.5177960000
 C        2.1666490000       -0.2584370000        0.6529090000
 C        2.5793690000       -1.5166460000       -1.4001810000
 C        3.5214940000       -0.1493020000        0.8471470000
 C        4.4963900000       -0.7077100000       -0.0757260000
 C        3.9314760000       -1.4094560000       -1.2159440000
 H        2.1649270000       -2.0494010000       -2.2603480000
 H        4.6406340000       -1.8526740000       -1.9202700000
 H        3.9359440000        0.3514450000        1.7234750000
 O        5.7220200000       -0.6011240000        0.1094550000
 O        1.2334400000        0.2081950000        1.5087920000
 C        1.6449070000        0.9318500000        2.6260280000
 H        2.2187700000        1.8322480000        2.3411970000
 H        2.2686090000        0.3226580000        3.3062260000
 H        0.7332450000        1.2418840000        3.1541860000

