%nproc=8
%mem=18000mb
#P PBE1PBE DEF2TZVPP OPT FREQ SCF(tight) INT(ultrafine)

 11-dibenzyl-3l_2c_rd

 1 2
 N        3.3493880000        1.1512500000       -0.2166410000
 C        2.4175900000        1.8520310000        0.4877840000
 C        1.1218800000        1.4316640000        0.5908080000
 C        2.9699100000       -0.0033060000       -0.8361930000
 C        1.6877700000       -0.4672910000       -0.7699630000
 C        0.6743270000        0.2320590000       -0.0434880000
 C       -0.6743370000       -0.2320730000        0.0435890000
 C       -1.6877800000        0.4672780000        0.7700630000
 C       -1.1218920000       -1.4316780000       -0.5907070000
 C       -2.4176040000       -1.8520410000       -0.4876880000
 C       -2.9699220000        0.0032980000        0.8362880000
 N       -3.3494010000       -1.1512560000        0.2167330000
 H       -2.7662760000       -2.7689970000       -0.9652870000
 H       -0.4458030000       -2.0507930000       -1.1789660000
 H       -1.4713530000        1.3981390000        1.2927580000
 H       -3.7560440000        0.5350720000        1.3744020000
 H        1.4713450000       -1.3981540000       -1.2926530000
 H        3.7560330000       -0.5350790000       -1.3743080000
 H        2.7662620000        2.7689880000        0.9653830000
 H        0.4457920000        2.0507760000        1.1790710000
 C        4.7238950000        1.6537630000       -0.3658950000
 C        5.7728080000        0.6074620000       -0.0969080000
 H        4.8398130000        2.0571940000       -1.3847450000
 H        4.8261550000        2.4984990000        0.3303970000
 C        6.6593310000        0.2210530000       -1.1060860000
 C        7.6412390000       -0.7378770000       -0.8552930000
 C        7.7388650000       -1.3205170000        0.4058240000
 C        5.8796080000        0.0186960000        1.1697580000
 C        6.8558000000       -0.9410870000        1.4185700000
 H        5.1964940000        0.3157090000        1.9711210000
 H        6.9350930000       -1.3916320000        2.4105790000
 H        8.5078560000       -2.0706200000        0.6041590000
 H        6.5898230000        0.6802140000       -2.0966750000
 H        8.3325430000       -1.0281130000       -1.6496400000
 C       -4.7239180000       -1.6537480000        0.3659650000
 C       -5.7728100000       -0.6074490000        0.0968850000
 H       -4.8398760000       -2.0571240000        1.3848330000
 H       -4.8261620000       -2.4985220000       -0.3302840000
 C       -5.8795340000       -0.0187220000       -1.1698050000
 C       -6.8557080000        0.9410560000       -1.4187030000
 C       -7.7388320000        1.3205200000       -0.4060200000
 C       -6.6593910000       -0.2210070000        1.1060000000
 C       -7.6412800000        0.7379190000        0.8551200000
 H       -5.1963740000       -0.3157610000       -1.9711180000
 H       -6.9349430000        1.3915720000       -2.4107300000
 H       -8.5078090000        2.0706200000       -0.6044220000
 H       -6.5899410000       -0.6801370000        2.0966070000
 H       -8.3326300000        1.0281820000        1.6494180000

