%nproc=8
%mem=18000mb
#P PBE1PBE DEF2TZVPP OPT FREQ SCF(tight) INT(ultrafine)

 11-dimethoxy-3l_2c_gn

 2 1
 N        0.0046390000        3.5051150000        0.1513860000
 C        0.3834170000        2.8590300000       -0.9662820000
 C        0.3828570000        1.4724740000       -0.9869950000
 C       -0.3777760000        2.8460440000        1.2669330000
 C       -0.3828570000        1.4677980000        1.2838660000
 C       -0.0000630000        0.7408600000        0.1432130000
 C        0.0000630000       -0.7408600000        0.1432130000
 C       -0.3828570000       -1.4724740000       -0.9869950000
 C        0.3828570000       -1.4677980000        1.2838660000
 C        0.3777760000       -2.8460440000        1.2669330000
 C       -0.3834170000       -2.8590300000       -0.9662820000
 N       -0.0046390000       -3.5051150000        0.1513860000
 H        0.6712860000       -3.4818240000        2.1052620000
 H        0.7189290000       -0.9741060000        2.1978340000
 H       -0.7193300000       -0.9839540000       -1.9035340000
 H       -0.6878690000       -3.4593120000       -1.8228590000
 H       -0.7189290000        0.9741060000        2.1978340000
 H       -0.6712860000        3.4818240000        2.1052620000
 H        0.6878690000        3.4593120000       -1.8228590000
 H        0.7193300000        0.9839540000       -1.9035340000
 O       -0.0334960000        4.8366620000        0.2811270000
 C        0.3385490000        5.6374310000       -0.8421350000
 H        1.3928100000        5.4750120000       -1.1150900000
 H        0.2123540000        6.6608650000       -0.4697650000
 H       -0.3411270000        5.4705300000       -1.6921680000
 O        0.0334960000       -4.8366620000        0.2811270000
 C       -0.3385490000       -5.6374310000       -0.8421350000
 H       -1.3928100000       -5.4750120000       -1.1150900000
 H       -0.2123540000       -6.6608650000       -0.4697650000
 H        0.3411270000       -5.4705300000       -1.6921680000

