%nproc=8
%mem=18000mb
#P PBE1PBE DEF2TZVPP OPT FREQ SCF(tight) INT(ultrafine)

 11-dimethoxy-3l_2c_ox

 3 2
 N       -0.0000290000        3.5109520000        0.1477550000
 C        0.1648740000        2.8601540000       -1.0348160000
 C        0.1562290000        1.4814330000       -1.0483820000
 C       -0.1688860000        2.8452490000        1.3339100000
 C       -0.1648740000        1.4749810000        1.3518240000
 C       -0.0034870000        0.7291600000        0.1506170000
 C        0.0034870000       -0.7291600000        0.1506170000
 C       -0.1562290000       -1.4814330000       -1.0483820000
 C        0.1648740000       -1.4749810000        1.3518240000
 C        0.1688860000       -2.8452490000        1.3339100000
 C       -0.1648740000       -2.8601540000       -1.0348160000
 N        0.0000290000       -3.5109520000        0.1477550000
 H        0.3024540000       -3.4845160000        2.2132970000
 H        0.3223150000       -1.0001640000        2.3221850000
 H       -0.3107340000       -1.0072120000       -2.0196550000
 H       -0.3025950000       -3.4597480000       -1.9370640000
 H       -0.3223150000        1.0001640000        2.3221850000
 H       -0.3024540000        3.4845160000        2.2132970000
 H        0.3025950000        3.4597480000       -1.9370640000
 H        0.3107340000        1.0072120000       -2.0196550000
 O       -0.0162940000        4.8105740000        0.2803320000
 C        0.1458960000        5.6963290000       -0.8513440000
 H        1.1372640000        5.5406760000       -1.3100910000
 H        0.0844580000        6.6905790000       -0.3907260000
 H       -0.6814560000        5.5465620000       -1.5657440000
 O        0.0162940000       -4.8105740000        0.2803320000
 C       -0.1458960000       -5.6963290000       -0.8513440000
 H       -1.1372640000       -5.5406760000       -1.3100910000
 H       -0.0844580000       -6.6905790000       -0.3907260000
 H        0.6814560000       -5.5465620000       -1.5657440000

