%nproc=8
%mem=18000mb
#P PBE1PBE DEF2TZVPP OPT FREQ SCF(tight) INT(ultrafine)

 1-methyl-3h_2c_gn

 2 1
 C        3.0887440000        1.0468590000        0.0850210000
 C        2.8880190000       -0.3252180000        0.1712130000
 C        2.0308350000        1.8893180000       -0.2270770000
 C        1.5405180000       -0.8050300000        0.0506680000
 N        0.7708820000        1.4491630000       -0.3211600000
 C        0.4753720000        0.1237210000       -0.0687350000
 C        1.2573230000       -2.2048610000       -0.0046470000
 C       -0.0109250000       -2.6569650000       -0.2090550000
 C       -1.1123330000       -1.7507990000       -0.1863270000
 C       -0.8794440000       -0.3646840000        0.0008800000
 C       -2.4471040000       -2.2113300000       -0.2867610000
 C       -3.4975320000       -1.3316900000       -0.1347030000
 C       -3.2108980000       -0.0183820000        0.2341600000
 N       -1.9566030000        0.4397890000        0.3206600000
 H        4.0888280000        1.4754790000        0.1754870000
 H        2.1930400000        2.9463400000       -0.4520260000
 H        2.0811430000       -2.9159350000        0.0640410000
 H       -0.2099710000       -3.7232530000       -0.3374480000
 C       -1.7288600000        1.7456530000        0.9884670000
 C       -1.2835180000        2.8419180000        0.0438320000
 H       -0.9742730000        1.5589700000        1.7676300000
 H       -2.6572480000        2.0152260000        1.5067470000
 C       -0.2473710000        2.3331260000       -0.9367010000
 H       -0.8918530000        3.6722160000        0.6515060000
 H       -2.1291530000        3.2468920000       -0.5331430000
 H        0.2856860000        3.1609640000       -1.4203660000
 H       -0.7143780000        1.7466710000       -1.7427010000
 H       -4.5384050000       -1.6516520000       -0.2134030000
 H       -4.0015150000        0.6807020000        0.5176550000
 H       -2.6330020000       -3.2736380000       -0.4687770000
 C        4.0352260000       -1.2524610000        0.3594370000
 H        4.9698760000       -0.7025100000        0.5227960000
 H        4.1702480000       -1.8906930000       -0.5303600000
 H        3.8727170000       -1.9234950000        1.2178270000

