%nproc=8
%mem=18000mb
#P PBE1PBE DEF2TZVPP OPT FREQ SCF(tight) INT(ultrafine)

 1-methyl-3h_2c_rd

 1 2
 C        3.0730340000        1.0804710000        0.1053660000
 C        2.8794140000       -0.3176720000        0.1381470000
 C        2.0193870000        1.9149900000       -0.1584610000
 C        1.5656080000       -0.8036530000        0.0234030000
 N        0.7520810000        1.4570060000       -0.2987710000
 C        0.4609810000        0.1101810000       -0.0734840000
 C        1.2783300000       -2.2090730000       -0.0113120000
 C        0.0082510000       -2.6704340000       -0.1378040000
 C       -1.1125340000       -1.7769140000       -0.1223700000
 C       -0.8610570000       -0.3737620000        0.0191410000
 C       -2.4235560000       -2.2364970000       -0.2273860000
 C       -3.4959290000       -1.3274240000       -0.1592070000
 C       -3.2320000000       -0.0161390000        0.1337730000
 N       -1.9594690000        0.4514350000        0.2855140000
 H        4.0697780000        1.5079250000        0.2192250000
 H        2.1562820000        2.9876350000       -0.3088010000
 H        2.1078760000       -2.9151510000        0.0324840000
 H       -0.1879920000       -3.7416590000       -0.2188740000
 C       -1.7490680000        1.7230290000        0.9784940000
 C       -1.2924580000        2.8375520000        0.0540850000
 H       -0.9987760000        1.5413900000        1.7647720000
 H       -2.6817240000        1.9892650000        1.4928070000
 C       -0.2524810000        2.3223570000       -0.9239000000
 H       -0.8906250000        3.6610250000        0.6647430000
 H       -2.1372950000        3.2480380000       -0.5205920000
 H        0.2747470000        3.1491420000       -1.4172060000
 H       -0.7304800000        1.7328520000       -1.7219910000
 H       -4.5294650000       -1.6534590000       -0.2769190000
 H       -4.0257570000        0.7137990000        0.3030380000
 H       -2.6086720000       -3.3045020000       -0.3571570000
 C        4.0551670000       -1.2312630000        0.2779990000
 H        4.9825350000       -0.6606740000        0.4136540000
 H        4.1799180000       -1.8630400000       -0.6162950000
 H        3.9448320000       -1.9061740000        1.1410110000

